18
1475-2
 C         -3.6124067296        0.0661821289       -0.2785236497
 C         -2.1443287300       -0.3363709673       -0.3500677260
 C         -1.3304659666        0.3181118764        0.7646314310
 C          0.1260285807       -0.1464970306        0.8100650633
 C          0.9246770792        0.3129229641       -0.3990310205
 S          2.7054704827       -0.0613140375       -0.2247081834
 H         -4.1777901095       -0.4036386880       -1.0797825293
 H         -3.7163439024        1.1449631385       -0.3720340936
 H         -4.0462540105       -0.2376243136        0.6716860816
 H         -1.7427298559       -0.0450773867       -1.3222498518
 H         -2.0624942166       -1.4226883945       -0.2658557394
 H         -1.7959509712        0.0792471210        1.7237969576
 H         -1.3598988757        1.4036182070        0.6453136876
 H          0.1578961913       -1.2376950250        0.8734639199
 H          0.5992395571        0.2529141418        1.7102812956
 H          0.8800035895        1.3964842490       -0.5072288605
 H          0.5799688669       -0.1528720188       -1.3212175041
 H          2.5628803516       -1.3816765251       -0.1278993611
