18
1475-22
 C         -2.8651891553        0.3781701950       -0.4601192043
 C         -1.8196527919       -0.6940631016       -0.1758795850
 C         -0.8797279056       -0.3358651820        0.9759582997
 C         -0.0461423487        0.9287005641        0.7630995778
 C          0.8892398593        0.8567483378       -0.4328260283
 S          2.0889296799       -0.5242490253       -0.2362601862
 H         -2.4051979137        1.2889744230       -0.8360332215
 H         -3.4178271530        0.6197642930        0.4454616106
 H         -3.5717583467        0.0253668256       -1.2081380790
 H         -1.2417263106       -0.8914179770       -1.0802617975
 H         -2.3300725420       -1.6236426615        0.0865612256
 H         -0.1995242164       -1.1741572788        1.1438499965
 H         -1.4709243792       -0.2030264593        1.8851495877
 H          0.5511258633        1.1014326371        1.6617917895
 H         -0.7019954686        1.7919932069        0.6308149054
 H          1.4693370224        1.7761587586       -0.5155561838
 H          0.3419429164        0.6877106861       -1.3592680241
 H          2.7955695969       -0.2335017321       -1.3263112008
