18
1475-7
 C         -2.7546202566       -0.6820813518        0.6399901641
 C         -2.2870890137        0.6318276170        0.0247286586
 C         -1.3223470229        0.4423678618       -1.1473787124
 C         -0.0131941023       -0.2680045293       -0.7966655371
 C          0.8178086387        0.5006879853        0.2174086762
 S          2.4837909646       -0.2233052524        0.4249238247
 H         -3.1730762066       -1.3328262422       -0.1249868421
 H         -3.5221417295       -0.4949720627        1.3875115663
 H         -1.9343614243       -1.2044236111        1.1258609687
 H         -1.8199485085        1.2500971866        0.7934008698
 H         -3.1592357257        1.1774090400       -0.3432878557
 H         -1.0872836242        1.4231506247       -1.5681064742
 H         -1.8250707923       -0.1380540371       -1.9246841816
 H          0.5737902801       -0.3836174978       -1.7111377431
 H         -0.2233931670       -1.2687437576       -0.4134233980
 H          0.3482539273        0.5275443083        1.1997845156
 H          1.0000691408        1.5210756260       -0.1196135410
 H          2.0672798774       -1.4192106432        0.8371127862
