18
1475-12
 C         -3.0905574009       -0.4593514298       -0.7516196998
 C         -2.5995566559       -0.0777396436        0.6398735527
 C         -1.2914179996        0.7136158757        0.6210879451
 C         -0.1012042760       -0.1114460588        0.1352271418
 C          1.1921327642        0.6787207878        0.2387004366
 S          2.5887473796       -0.3481415781       -0.3701598356
 H         -4.0630728113       -0.9419364749       -0.6876328489
 H         -2.4032715769       -1.1491128953       -1.2340078216
 H         -3.1882005298        0.4256345908       -1.3768717791
 H         -2.4644572178       -0.9815415219        1.2380427209
 H         -3.3637283881        0.5309302614        1.1290793812
 H         -1.0819657435        1.0695382680        1.6333462131
 H         -1.4094686552        1.5907848043       -0.0197943821
 H         -0.2481789395       -0.4090128055       -0.9041275913
 H         -0.0142704956       -1.0202304620        0.7353308553
 H          1.4058883866        0.9490765316        1.2732184750
 H          1.1505522926        1.5789577405       -0.3751581784
 H          3.5329353301        0.5670943474       -0.1629124428
