18
1475-25
 C         -2.7385446546        0.6152886862       -0.7076102910
 C         -2.2992604511       -0.6456405114        0.0295503656
 C         -1.3250926050       -0.3685381259        1.1829921033
 C          0.1492860421       -0.5669028578        0.8258433438
 C          0.6542153431        0.4074794301       -0.2242813701
 S          2.4686796978        0.1880190914       -0.4255723843
 H         -3.2522646134        1.2908061503       -0.0266987877
 H         -3.4230790459        0.3609766606       -1.5140848449
 H         -1.8904798937        1.1437615106       -1.1343589611
 H         -1.8401432970       -1.3419677822       -0.6750863651
 H         -3.1925527826       -1.1321447382        0.4269868363
 H         -1.5483993056       -1.0457796144        2.0098036120
 H         -1.4745457200        0.6500082871        1.5475759529
 H          0.3055992169       -1.5876085695        0.4688034608
 H          0.7490473331       -0.4404438279        1.7310641691
 H          0.4790878113        1.4389861321        0.0827400796
 H          0.1982164388        0.2212724210       -1.1953016136
 H          2.6145244297        1.1148289994       -1.3704668680
