18
1475-14
 C         -3.2570456869        0.2472064561       -0.3468376016
 C         -2.2370977341       -0.6979895229        0.2778443388
 C         -0.8897929756       -0.0328980785        0.5556637404
 C         -0.1405913808        0.3620317165       -0.7150074567
 C          1.2421114433        0.9174770856       -0.4160581369
 S          2.3245751717       -0.3899952536        0.2939145140
 H         -3.3871255480        1.1313410568        0.2739542850
 H         -4.2205556487       -0.2484270802       -0.4415327835
 H         -2.9430774700        0.5645369597       -1.3379449762
 H         -2.0854205315       -1.5563729406       -0.3802900871
 H         -2.6372900348       -1.0736401145        1.2222843653
 H         -0.2664398782       -0.7289412867        1.1219132917
 H         -1.0444135368        0.8547050164        1.1744987412
 H         -0.6994090225        1.1280647688       -1.2571132833
 H         -0.0421415662       -0.5104544161       -1.3651756238
 H          1.1884033657        1.7292385286        0.3101243041
 H          1.7234042004        1.2697072882       -1.3284532782
 H          3.4221245879        0.3617243543        0.3378574978
