18
1475-11
 C         -3.3533958067       -0.0414758703       -0.5304897087
 C         -2.2620035670       -0.4031619043        0.4691219915
 C         -0.9308981327        0.2526730751        0.1130245350
 C          0.1698131604       -0.1098912761        1.1065000287
 C          1.4998970552        0.5382655118        0.7600730170
 S          2.1460520530       -0.1308551895       -0.8267438173
 H         -4.2923646176       -0.5202050343       -0.2627069280
 H         -3.0750517644       -0.3659888286       -1.5306121293
 H         -3.5104162371        1.0348231075       -0.5517945724
 H         -2.1345597824       -1.4877429769        0.4903485813
 H         -2.5652678329       -0.0858096817        1.4699549840
 H         -1.0558829413        1.3383860159        0.0926979617
 H         -0.6276838842       -0.0661398999       -0.8867026050
 H          0.2963620131       -1.1947458926        1.1302185606
 H         -0.1189932460        0.2162403708        2.1095718535
 H          2.2460522266        0.3250512536        1.5253807206
 H          1.3900618496        1.6166238872        0.6411872176
 H          3.2981868521        0.5345840113       -0.7891589908
