18
1475-19
 C         -2.6387450097        0.5829861330       -0.8003682351
 C         -2.4492034284       -0.5614454059        0.1887176456
 C         -1.3126240509       -0.3580383019        1.1947499084
 C          0.0979516661       -0.6476746321        0.6705383573
 C          0.7017146816        0.4803562224       -0.1502218452
 S          2.4915968813        0.2272832967       -0.4336428486
 H         -3.5551163502        0.4351548205       -1.3679712808
 H         -1.8164457687        0.6448905184       -1.5068214209
 H         -2.7129234259        1.5325025150       -0.2748410387
 H         -2.2867346607       -1.4935018957       -0.3572940378
 H         -3.3774922887       -0.6746406874        0.7543692144
 H         -1.4889433685       -1.0360602251        2.0333064105
 H         -1.3521234235        0.6607140521        1.5864419921
 H          0.0852738556       -1.5659553403        0.0774341937
 H          0.7528778239       -0.8200059890        1.5287861664
 H          0.6401273101        1.4283584411        0.3835694028
 H          0.2335807962        0.5896204977       -1.1259889776
 H          2.3686305308       -0.9267624928       -1.0866189818
