18
1475-6
 C         -2.8967846506       -0.7344001686       -0.5414741104
 C         -2.4298913834        0.3439089964        0.4292551027
 C         -0.9193750317        0.3265434065        0.6644731018
 C         -0.1177920944        0.6974455125       -0.5818026875
 C          1.3636845554        0.8974558226       -0.2976801591
 S          2.2405454650       -0.6508982669        0.1268242879
 H         -2.5024024867       -0.5606828196       -1.5391301327
 H         -3.9825576798       -0.7396394918       -0.6039338082
 H         -2.5684564009       -1.7160014627       -0.2065564302
 H         -2.9300082151        0.1954255796        1.3892623893
 H         -2.7253837260        1.3258616482        0.0522565613
 H         -0.6278211330       -0.6700900379        1.0041873097
 H         -0.6814580451        1.0371511033        1.4614718306
 H         -0.5081181185        1.6324507944       -0.9936080909
 H         -0.2275369434       -0.0785656720       -1.3404777049
 H          1.5257518080        1.6043648162        0.5162156666
 H          1.8784157713        1.2583576332       -1.1880926899
 H          1.6668858082       -0.8285516115        1.3138261472
