18
1475-4
 C         -3.1119077535       -0.5250941935        0.3878496714
 C         -1.8904069751       -0.2971266599       -0.4939739216
 C         -0.9654794069        0.7627230348        0.1002127910
 C          0.2295837256        1.0966683742       -0.7923344611
 C          1.2540345431       -0.0243353026       -0.8890574832
 S          1.9940662490       -0.4578332571        0.7251818587
 H         -2.8081278948       -0.8565226855        1.3783268092
 H         -3.7600815369       -1.2838923241       -0.0443406593
 H         -3.6836073089        0.3944335335        0.4950948212
 H         -2.2135651474        0.0203981243       -1.4887112965
 H         -1.3525644055       -1.2404849566       -0.6026958457
 H         -0.6012568544        0.4195908708        1.0710155337
 H         -1.5399206889        1.6771846619        0.2657237975
 H          0.7243707430        1.9921760108       -0.4055282610
 H         -0.1206336879        1.3217646207       -1.8035281956
 H          2.0686292595        0.2472591272       -1.5613041358
 H          0.8016360159       -0.9491369114       -1.2424922066
 H          2.4937259239        0.7505030712        0.9786924314
