18
1475-8
 C         -2.9250690040        0.3562826448       -0.4599571196
 C         -1.8499215071       -0.6926494845       -0.2005013473
 C         -0.8957624508       -0.3180227023        0.9343275915
 C         -0.0665194714        0.9430586023        0.6885473093
 C          0.9155425114        0.8190095062       -0.4664086235
 S          2.1400904081       -0.5174336167       -0.2268817898
 H         -3.6391023183       -0.0114292883       -1.1933797882
 H         -2.4944555736        1.2776108373       -0.8447742653
 H         -3.4638192873        0.5841428715        0.4575893957
 H         -1.2855565775       -0.8727780159       -1.1169856459
 H         -2.3344204060       -1.6342881761        0.0680009985
 H         -0.2135187516       -1.1541984121        1.1042516261
 H         -1.4765283231       -0.1725476507        1.8482664102
 H          0.4903118731        1.1756480555        1.6010158348
 H         -0.7251521064        1.7895090422        0.4832606219
 H          1.4682488444        1.7481163459       -0.6102963160
 H          0.4097469964        0.5654930219       -1.3963201085
 H          2.6505930920       -0.0364290543        0.9053344974
