18
1475-17
 C         -2.7280218021        0.5791000459       -0.7704661258
 C         -2.2869636551       -0.6394663033        0.0337265571
 C         -1.3418990242       -0.2931105021        1.1927309268
 C          0.1413324201       -0.5109806654        0.8838625850
 C          0.6671774020        0.4034060627       -0.2092045994
 S          2.4566231356        0.1650168384       -0.4994897395
 H         -3.3900700348        0.2768913624       -1.5790710279
 H         -1.8783043979        1.1003758339       -1.2026895844
 H         -3.2672215945        1.2770424679       -0.1331799422
 H         -1.8025601025       -1.3599227493       -0.6283197966
 H         -3.1811241904       -1.1214383810        0.4346676646
 H         -1.5858348391       -0.9188951511        2.0537592246
 H         -1.4989870439        0.7457185974        1.4911365560
 H          0.3046266835       -1.5499032493        0.5885169447
 H          0.7149299857       -0.3343365029        1.7987606349
 H          0.5036681684        1.4541080360        0.0325865124
 H          0.2101624856        0.1781737520       -1.1710798447
 H          2.8478855375        0.4974961076        0.7292511666
