18
1475-20
 C         -2.2142271429        0.6555998180        0.7435357870
 C         -2.0899575977       -0.2040132015       -0.5110328834
 C         -0.9032760123       -1.1785315529       -0.4777964990
 C          0.3305882746       -0.7016500288       -1.2467724316
 C          0.9820460641        0.5655894628       -0.7131320164
 S          1.7665132548        0.3501865941        0.9243933058
 H         -1.3441440878        1.2913914095        0.8865490458
 H         -2.3272998642        0.0265401112        1.6246449111
 H         -3.0895329863        1.2979160029        0.6725348583
 H         -2.0075092250        0.4407641044       -1.3887711565
 H         -3.0143531793       -0.7755080066       -0.6175824862
 H         -1.2086230721       -2.1268216605       -0.9250916851
 H         -0.6311743877       -1.3905834050        0.5584248209
 H          0.0492787225       -0.5164500205       -2.2874059531
 H          1.0752217023       -1.5013816288       -1.2418297115
 H          0.2760863680        1.3914654228       -0.6455016055
 H          1.8058126885        0.8636847268       -1.3621866273
 H          0.6398161603        0.1443117284        1.6014852743
