48
seed_id=P0_SEED_01 system=P0 charge=0 multiplicity=1 geometry_status=rdkit_etkdg_unoptimized random_seed=20260724 conformer_id=0
C  -1.7958263382 -0.3296312759  2.2477282632
O  -1.5171531206 -0.3152752279  0.9543460817
P  -0.2609832091 -0.2278645462  0.0971962658
C  -0.4837151032  1.3483796426  0.7011987569
C  -1.2836217610  2.2196595291 -0.0113084503
C  -1.4332362052  3.5470370005  0.3736975995
C  -0.7876274348  4.0148119811  1.4711755262
C   0.0249048200  3.2046236357  2.2292101984
C   0.1474970209  1.8746347390  1.8051559595
C   1.3594075948  0.1706618743 -0.4618145726
C   2.4592543508 -0.3927632065  0.0637925315
C   3.6856166567 -0.0300477611 -0.4166051815
C   3.8078227991  0.8929811402 -1.4194526839
C   2.6555804279  1.4672596300 -1.9532704750
C   1.4381831763  1.1133792517 -1.4826497993
C  -1.0064319099 -0.4916061027 -1.4899450096
C  -2.3643735276 -0.3585849192 -1.7663682509
C  -2.9394660297 -0.5660875388 -2.9843998635
N  -2.1763297787 -0.9238686990 -4.0078908042
C  -0.8599629784 -1.0775314921 -3.8406110547
C  -0.2776778716 -0.8678631282 -2.6099039716
C   0.0104887145 -1.6768474506  0.9265810252
C  -0.3070561103 -2.8458000479  0.2572688077
C  -0.0661952848 -4.0590046207  0.8538062496
N   0.4712356366 -4.1606248736  2.0760152170
C   0.8016766758 -3.0703643835  2.7800026116
C   0.5559551192 -1.8259783243  2.1710989666
H  -1.1945062236  0.1978364252  2.9761164136
H  -1.8096960167 -1.4070036031  2.6049864229
H  -2.8907240095 -0.0404967609  2.3837309320
H  -1.8350175961  1.9520683868 -0.8999894219
H  -2.0600224359  4.2119964012 -0.1926824402
H  -0.9397457214  5.0737798185  1.7351345871
H   0.5228151528  3.5861379973  3.0851611382
H   0.8140156528  1.2874350699  2.4292698328
H   2.3755799526 -1.1456207388  0.8753246035
H   4.5822471226 -0.4687675958 -0.0098666273
H   4.7459629731  1.2176880844 -1.8379220926
H   2.7522361757  2.2033528838 -2.7531649967
H   0.5590556329  1.5726157119 -1.9124264899
H  -3.0223834095 -0.0727954968 -0.9309134544
H  -4.0189025990 -0.4341179523 -3.0964756303
H  -0.2616414874 -1.3680659053 -4.6840769773
H   0.7920579989 -1.0046112861 -2.5048848331
H  -0.7448614122 -2.8691510094 -0.7326345712
H  -0.3131431635 -5.0017457628  0.3352748332
H   1.2397365257 -3.1349372582  3.7760367327
H   0.8489705581 -0.9892822353  2.7899480957
