8
995-1
 C         -0.7607082041       -0.0000017267       -0.0000000258
 C          0.7607129189       -0.0000008904       -0.0000070179
 H         -1.1435093591        0.0109090567        1.0180949603
 H         -1.1437837019       -0.8870926871       -0.4995642672
 H         -1.1436559476        0.8763062679       -0.5183758729
 H          1.1437355902        0.8868988687        0.4999128076
 H          1.1435591073       -0.0105227093       -1.0180807676
 H          1.1435981254       -0.8764676100        0.5180970786
