18
1475-24
 C         -1.9855697669        0.0910733871        1.0677879078
 C         -1.7337873153       -0.5837536517       -0.2756342104
 C         -1.1484843174        0.3618900641       -1.3338142786
 C          0.3724562553        0.3075141347       -1.4938623065
 C          1.1740385179        0.8202883675       -0.3032904707
 S          1.4524689755       -0.4242615902        1.0087630057
 H         -2.6523200630        0.9430644099        0.9481279625
 H         -1.0589242577        0.4365332446        1.5165004796
 H         -2.4485583924       -0.6110737799        1.7574569369
 H         -2.6850952977       -0.9757470641       -0.6427933659
 H         -1.0653989868       -1.4341230742       -0.1326632336
 H         -1.4461618816        1.3880308970       -1.1066011893
 H         -1.5762140346        0.1097838565       -2.3072555050
 H          0.6394987275        0.9263231288       -2.3559387742
 H          0.6762292620       -0.7172695070       -1.7231806117
 H          0.6622482807        1.6451287507        0.1905573007
 H          2.1610862826        1.1601612533       -0.6187382727
 H          2.1724564532       -1.2568505841        0.2583811206
