18
1475-15
 C         -3.1175925050       -0.4124174732        0.4584708912
 C         -1.9093360684        0.4537129872        0.1243112140
 C         -0.9219188020       -0.2910065806       -0.7714364602
 C          0.2592698311        0.5664203717       -1.2259532764
 C          1.2129527130        0.9409355024       -0.1025591646
 S          1.9813265839       -0.5665680465        0.6194300061
 H         -3.6442138002       -0.7007834510       -0.4488297167
 H         -3.8100850949        0.1267787438        1.1008353620
 H         -2.8041118214       -1.3175461662        0.9738879714
 H         -1.4199678629        0.7490290127        1.0540153157
 H         -2.2422049275        1.3633198241       -0.3824057057
 H         -1.4514846852       -0.6443486702       -1.6593170487
 H         -0.5425340901       -1.1683468238       -0.2430692593
 H         -0.1114793109        1.4900317862       -1.6793166203
 H          0.8203724489        0.0199640547       -1.9878129888
 H          0.6979916649        1.4659388593        0.7008822667
 H          2.0232935584        1.5625444509       -0.4837304947
 H          2.8082760582        0.0880446209        1.4314502548
