48
candidate_id=P0_C009 system=P0 charge=0 multiplicity=1
C    4.5652170000  0.6337850000  0.4672080000
C    3.1908210000  0.8018200000  0.5955590000
C    2.3160380000 -0.2308380000  0.2268290000
C    2.8357870000 -1.4293100000 -0.2754800000
C    4.2144710000 -1.5916690000 -0.4068800000
H    5.2365380000  1.4376650000  0.7554640000
H    2.7996600000  1.7395160000  0.9835840000
H    2.1746890000 -2.2392550000 -0.5680560000
H    4.6105460000 -2.5230520000 -0.8012930000
P    0.5200290000  0.0061490000  0.4104400000
C   -0.3548770000 -1.3057570000 -0.4004190000
C   -0.4611550000 -2.5754190000  0.2543660000
C   -0.5139460000 -1.3422950000 -1.8212780000
C   -0.9895920000 -3.6394880000 -0.4425850000
H   -0.2051480000 -2.6892770000  1.3032320000
C   -1.0466420000 -2.4761350000 -2.3986520000
H   -0.2942810000 -0.4789930000 -2.4402160000
H   -1.1365690000 -4.5870880000  0.0733810000
H   -1.2405650000 -2.4785900000 -3.4702720000
C    0.2173510000  1.6692890000 -0.2091870000
C    0.6821690000  2.0309290000 -1.4775080000
C   -0.4456550000  2.6032450000  0.5922270000
C    0.4508370000  3.3188610000 -1.9552450000
H    1.2268560000  1.3195220000 -2.0930170000
C   -0.6557480000  3.8934070000  0.1161750000
H   -0.8039530000  2.3232130000  1.5780880000
C   -0.2164360000  4.2488210000 -1.1596400000
H    0.8012330000  3.5956720000 -2.9453150000
H   -1.1685560000  4.6198680000  0.7399310000
H   -0.3892950000  5.2549590000 -1.5315280000
C    5.0778000000 -0.5636250000 -0.0355100000
H    6.1517150000 -0.6922690000 -0.1397420000
O    0.2300180000 -0.0177050000  1.9846690000
C   -2.0281120000 -0.1698620000  0.3513660000
C   -2.7161150000 -0.6316210000  1.4731240000
C   -2.7921890000  0.4956810000 -0.6073970000
C   -4.0837960000 -0.3958470000  1.5993510000
H   -2.2052300000 -1.1856380000  2.2604210000
C   -4.1553810000  0.6892010000 -0.4055850000
H   -2.3399370000  0.8692900000 -1.5272840000
H   -4.6249760000 -0.7459340000  2.4776500000
H   -4.7549230000  1.2146860000 -1.1478830000
N   -4.8119450000  0.2584650000  0.6829990000
C    1.1469440000 -0.5516540000  2.9636900000
H    1.9690110000  0.1481990000  3.1286510000
H    0.5567510000 -0.6571160000  3.8744340000
H    1.5314810000 -1.5261820000  2.6552790000
N   -1.3255370000 -3.6240220000 -1.7496620000
