48
candidate_id=P0_C001 system=P0 charge=0 multiplicity=1
C   -0.7135440000  3.3453540000 -1.8147350000
C   -0.0002830000  2.2784470000 -1.2736990000
C   -0.4583430000  1.6602200000 -0.1042940000
C   -1.6289800000  2.1113480000  0.5192760000
C   -2.3297830000  3.1831500000 -0.0239350000
H   -0.3564020000  3.8251310000 -2.7212680000
H    0.9087410000  1.9368390000 -1.7608280000
H   -1.9958050000  1.6289600000  1.4204070000
H   -3.2346470000  3.5347560000  0.4631930000
P    0.3806280000  0.1995650000  0.5288170000
C   -1.8591970000 -1.2135640000 -0.0307440000
C   -2.3757960000 -1.4631930000  1.2441400000
C   -2.7655280000 -0.7955640000 -1.0054800000
C   -3.7317900000 -1.2734320000  1.4829000000
H   -1.7452460000 -1.7994350000  2.0603590000
C   -4.1057140000 -0.6330700000 -0.6698600000
H   -2.4503160000 -0.5903590000 -2.0223190000
H   -4.1394070000 -1.4619850000  2.4732630000
H   -4.8157270000 -0.3001200000 -1.4232730000
C    2.1588860000  0.4084660000  0.3088720000
C    2.9999120000 -0.5727210000 -0.2252900000
C    2.6995950000  1.6142130000  0.7828540000
C    4.3717690000 -0.3389800000 -0.2947660000
H    2.6067950000 -1.5123740000 -0.5949720000
C    4.0699390000  1.8369250000  0.7118950000
H    2.0540370000  2.3800340000  1.2054760000
C    4.9067060000  0.8602830000  0.1705940000
H    5.0213580000 -1.1010450000 -0.7155190000
H    4.4828740000  2.7727840000  1.0767510000
H    5.9773260000  1.0360760000  0.1122130000
C   -1.8754760000  3.7974450000 -1.1911940000
H   -2.4279910000  4.6316180000 -1.6146440000
O    0.0882490000  0.2970570000  2.1120890000
C   -0.3575800000 -1.3640760000 -0.3294440000
C    0.2200690000 -2.6453580000  0.2104760000
C    0.0149950000 -1.2480230000 -1.7818890000
C    1.0184410000 -3.4526900000 -0.5443460000
H   -0.0202560000 -2.9418270000  1.2266440000
C    0.8455930000 -2.1482790000 -2.3888650000
H   -0.3597160000 -0.4101590000 -2.3622650000
H    1.3926430000 -4.3666830000 -0.0809340000
H    1.0867150000 -1.9794190000 -3.4395560000
N    1.4075690000 -3.2559300000 -1.8369330000
C    0.7612910000 -0.5500070000  3.0663800000
H    0.6023320000 -0.0807750000  4.0375120000
H    0.3245420000 -1.5504970000  3.0579540000
H    1.8323770000 -0.6029050000  2.8506000000
N   -4.6005310000 -0.8583450000  0.5525260000
