48
candidate_id=P0_C013 system=P0 charge=0 multiplicity=1
C    2.3157560000 -3.4175110000 -1.1153100000
C    1.4406250000 -2.3440660000 -1.2681530000
C    1.2829680000 -1.4013060000 -0.2453740000
C    2.0405850000 -1.5463810000  0.9239940000
C    2.9443850000 -2.5969700000  1.0605550000
H    2.4099910000 -4.1487640000 -1.9134930000
H    0.8896130000 -2.2380100000 -2.1953960000
H    1.9296350000 -0.8428340000  1.7431660000
H    3.5359110000 -2.6799260000  1.9681100000
P    0.1035530000  0.0152000000 -0.4251520000
C    0.7970380000  1.7188880000 -0.2827810000
C    0.1318160000  2.8046240000 -0.8528730000
C    2.0145110000  1.9617130000  0.3500280000
C    0.6929920000  4.0718080000 -0.7381830000
H   -0.8044670000  2.6845170000 -1.3886560000
C    2.5023170000  3.2647160000  0.3921820000
H    2.5919410000  1.1661600000  0.8092970000
H    0.1815050000  4.9319450000 -1.1632490000
H    3.4550290000  3.4707560000  0.8740860000
C   -0.4635810000 -0.0785790000  1.4237890000
C   -0.4978200000  1.0007830000  2.3107380000
C   -0.9811770000 -1.3035550000  1.8769460000
C   -1.0141350000  0.8636070000  3.6041230000
H   -0.1273430000  1.9770970000  2.0122360000
C   -1.4955300000 -1.4506970000  3.1605810000
H   -0.9832770000 -2.1684120000  1.2148020000
C   -1.5126010000 -0.3611600000  4.0351180000
H   -1.0242430000  1.7228460000  4.2704400000
H   -1.8846170000 -2.4143370000  3.4802480000
H   -1.9132990000 -0.4696790000  5.0396810000
C    3.0759920000 -3.5431830000  0.0456120000
H    3.7688910000 -4.3727020000  0.1583710000
O    0.3921760000  0.0984260000 -2.1977270000
C   -1.6620420000 -0.2317430000 -0.9405270000
C   -2.0634620000 -1.3326290000 -1.6964030000
C   -2.6484840000  0.6664270000 -0.5300240000
C   -3.4137680000 -1.4865070000 -1.9961270000
H   -1.3563800000 -2.0738650000 -2.0504020000
C   -3.9665700000  0.4417220000 -0.9119390000
H   -2.4158870000  1.5300080000  0.0857000000
H   -3.7456140000 -2.3495450000 -2.5684720000
H   -4.7430760000  1.1437060000 -0.6179170000
N   -4.3622580000 -0.6182420000 -1.6268820000
C    1.6563400000  0.4204140000 -2.7388940000
H    1.7729610000 -0.1135180000 -3.6897800000
H    1.7392210000  1.4994880000 -2.9322650000
H    2.4892390000  0.1270480000 -2.0840610000
N    1.8603480000  4.3154040000 -0.1296640000
