48
candidate_id=P0_C002 system=P0 charge=0 multiplicity=1
C   -0.4237610000 -1.6501820000 -2.6821690000
C    0.1066990000 -0.6113220000 -1.9159870000
C    0.4739160000 -0.8345800000 -0.5866040000
C    0.3047670000 -2.1115630000 -0.0361910000
C   -0.2161990000 -3.1494070000 -0.8035990000
H   -0.7118430000 -1.4635930000 -3.7136830000
H    0.2241230000  0.3747180000 -2.3545800000
H    0.5734660000 -2.2978370000  1.0023810000
H   -0.3472610000 -4.1338370000 -0.3623800000
P    1.1346630000  0.4729490000  0.5172700000
C    2.9348650000  0.0846550000  0.4305040000
C    3.6172700000 -0.1867010000  1.6196500000
C    3.6366700000  0.0643210000 -0.7824080000
C    4.9807830000 -0.4892930000  1.6000470000
H    3.0848000000 -0.1620070000  2.5684330000
C    4.9978390000 -0.2240430000 -0.8021320000
H    3.1156770000  0.2738900000 -1.7143200000
H    5.5017850000 -0.7037260000  2.5294280000
H    5.5362750000 -0.2355350000 -1.7462220000
C   -2.7290240000 -0.2300230000  0.6629530000
C   -2.2669880000 -0.7010940000  1.8961320000
C   -3.3837650000 -1.1482180000 -0.1628600000
C   -2.4777280000 -2.0311540000  2.2385140000
H   -1.7238350000 -0.0591950000  2.5821230000
C   -3.5419140000 -2.4600670000  0.2692240000
H   -3.7840630000 -0.8579170000 -1.1289150000
H   -2.1170650000 -2.4085420000  3.1923010000
H   -4.0478770000 -3.1823160000 -0.3668480000
C   -0.5868240000 -2.9189880000 -2.1294600000
H   -1.0057860000 -3.7250370000 -2.7260950000
O    1.0145540000  1.7539040000 -0.5477340000
C   -2.5149740000  1.1787720000  0.2422310000
C   -2.4227870000  1.5307470000 -1.1074680000
C   -2.3796750000  2.2095900000  1.1777700000
C   -2.1979940000  2.8583920000 -1.4514430000
H   -2.4955620000  0.7868240000 -1.8935470000
C   -2.1611570000  3.5083000000  0.7327370000
H   -2.4581440000  2.0226160000  2.2440770000
H   -2.1129470000  3.1396400000 -2.4983080000
H   -2.0570800000  4.3170860000  1.4519840000
C    1.3745280000  3.0309530000 -0.0239950000
H    2.4560620000  3.0886210000  0.1536570000
H    1.0952580000  3.7719080000 -0.7759600000
H    0.8417670000  3.2432330000  0.9113290000
N   -3.1048610000 -2.9128180000  1.4502910000
N   -2.0679150000  3.8469070000 -0.5587420000
C    5.6708240000 -0.5054880000  0.3902910000
H    6.7330850000 -0.7347280000  0.3726990000
