48
candidate_id=P0_C010 system=P0 charge=0 multiplicity=1
C   -0.1180610000  4.1503370000 -0.7207230000
C    0.2324890000  2.8073160000 -0.8406900000
C   -0.5665890000  1.8156500000 -0.2629730000
C   -1.7343430000  2.1833160000  0.4088780000
C   -2.0957970000  3.5262400000  0.5075840000
H    0.5172420000  4.9121350000 -1.1643580000
H    1.1275600000  2.5391040000 -1.3949910000
H   -2.3746060000  1.4327970000  0.8620930000
H   -3.0120080000  3.7975050000  1.0250250000
P   -0.0822970000  0.0532270000 -0.4589600000
C   -1.4220680000 -1.2416800000 -0.3498950000
C   -1.6257720000 -2.1656380000 -1.3757790000
C   -2.2634060000 -1.3282410000  0.7611980000
C   -2.6227770000 -3.1270100000 -1.2373610000
H   -1.0338860000 -2.1432950000 -2.2826020000
C   -3.2585180000 -2.3002130000  0.7887790000
H   -2.1618870000 -0.6639560000  1.6125730000
H   -2.7742410000 -3.8659000000 -2.0203610000
H   -3.9330220000 -2.3604170000  1.6392020000
C    0.3615770000 -0.2037260000  1.4270810000
C    0.7153410000 -1.4911070000  1.8561830000
C    0.4596630000  0.8038920000  2.3865020000
C    1.1188570000 -1.7079380000  3.1654970000
H    0.6824000000 -2.3391820000  1.1749120000
C    0.8774010000  0.4955810000  3.6820760000
H    0.2256130000  1.8382010000  2.1552790000
H    1.3893690000 -2.7080810000  3.4970540000
H    0.9518020000  1.2834890000  4.4289970000
C   -1.2846280000  4.5133750000 -0.0484140000
H   -1.5627210000  5.5603660000  0.0365810000
O   -0.3262130000  0.1765990000 -2.2238360000
C    1.6672530000 -0.3629650000 -0.8818400000
C    2.7039820000  0.3996970000 -0.3326530000
C    1.9811670000 -1.4516480000 -1.6999410000
C    4.0323420000  0.0933800000 -0.6184510000
H    2.4857410000  1.2379450000  0.3237430000
C    3.3126240000 -1.7775830000 -1.9555370000
H    1.1969680000 -2.0572970000 -2.1405230000
H    4.8255550000  0.7066380000 -0.1994440000
H    3.5423630000 -2.6367580000 -2.5800390000
C   -1.5380220000  0.6559940000 -2.7682450000
H   -1.4912930000  1.7409140000 -2.9376740000
H   -1.7053280000  0.1581100000 -3.7309230000
H   -2.4079850000  0.4506000000 -2.1278600000
C    4.3412030000 -1.0020470000 -1.4238490000
H    5.3779970000 -1.2507380000 -1.6336840000
N    1.2032690000 -0.7348080000  4.0863640000
N   -3.4411240000 -3.2013750000 -0.1824310000
