48
candidate_id=P0_C012 system=P0 charge=0 multiplicity=1
C    4.6065640000 -0.5742200000  2.0147650000
C    3.2996210000 -0.8673710000  1.6242810000
C    2.7567090000 -0.3065620000  0.4611250000
C    3.5492680000  0.5603590000 -0.3048690000
C    4.8531070000  0.8555420000  0.0839270000
H    5.0131700000 -1.0149260000  2.9210180000
H    2.6958960000 -1.5364740000  2.2342560000
H    3.1480790000  1.0117480000 -1.2084670000
H    5.4571240000  1.5287660000 -0.5186810000
P    1.0361130000 -0.8037960000  0.0336000000
C    0.4577950000  0.6648010000 -0.9134850000
C   -0.1618080000  0.5318300000 -2.1598280000
C    0.4985330000  1.9297180000 -0.3108940000
C   -0.7127000000  1.6422830000 -2.8005790000
H   -0.2204400000 -0.4426390000 -2.6378140000
C   -0.0549100000  3.0370140000 -0.9474270000
H    0.9643270000  2.0558600000  0.6644290000
H   -1.1864490000  1.5223010000 -3.7715750000
H   -0.0177220000  4.0098380000 -0.4645000000
C   -2.5906720000  0.3345760000  0.9136800000
C   -3.2347170000  1.3092840000  0.1472010000
C   -1.9155210000  0.7648710000  2.0601820000
C   -3.1812330000  2.6372530000  0.5554400000
H   -3.7861450000  1.0490930000 -0.7510170000
C   -1.9218340000  2.1163780000  2.3838610000
H   -1.3681140000  0.0685540000  2.6877880000
H   -3.6790250000  3.4051770000 -0.0316400000
H   -1.3961470000  2.4643870000  3.2698250000
C    5.3838460000  0.2878730000  1.2440270000
H    6.4012010000  0.5215180000  1.5467460000
O    1.2317370000 -1.9538460000 -1.1557100000
C   -2.5981150000 -1.0962320000  0.5189050000
C   -2.5627750000 -2.1175930000  1.4728750000
C   -2.6109780000 -1.4777420000 -0.8253700000
C   -2.5259250000 -3.4406720000  1.0488380000
H   -2.5723070000 -1.8985150000  2.5361970000
C   -2.5637150000 -2.8288790000 -1.1481200000
H   -2.6289880000 -0.7403000000 -1.6207850000
H   -2.4989330000 -4.2447470000  1.7803200000
H   -2.5550230000 -3.1373340000 -2.1906980000
C    2.2192050000 -1.8425960000 -2.1842650000
H    3.2158490000 -2.0462350000 -1.7785760000
H    1.9720820000 -2.5966730000 -2.9354660000
H    2.2123050000 -0.8518350000 -2.6508460000
N   -2.5431430000  3.0525370000  1.6562400000
N   -2.5190430000 -3.8096510000 -0.2383830000
C   -0.6620160000  2.8966390000 -2.1963370000
H   -1.0974010000  3.7606200000 -2.6914270000
