48
candidate_id=P0_C014 system=P0 charge=0 multiplicity=1
C    0.1369430000  4.0078630000 -0.4358080000
C    0.3303110000  2.7608700000  0.1567750000
C   -0.2391770000  1.6134400000 -0.4017050000
C   -1.0114470000  1.7333580000 -1.5620600000
C   -1.1673990000  2.9717670000 -2.1802350000
H    0.5704430000  4.8936540000  0.0204840000
H    0.9273560000  2.6905890000  1.0625480000
H   -1.5084230000  0.8654510000 -1.9859520000
H   -1.7487180000  3.0460950000 -3.0953080000
P   -0.0282190000 -0.0091510000  0.4790760000
C    0.3616650000 -1.4900990000 -0.5587360000
C    0.3380620000 -1.5176630000 -1.9519810000
C    0.7203520000 -2.6614970000  0.1110250000
C    0.6720510000 -2.7010650000 -2.6038140000
H    0.0742800000 -0.6454010000 -2.5404690000
C    1.0245940000 -3.7959190000 -0.6330240000
H    0.7663920000 -2.7055150000  1.1960560000
H    0.6670700000 -2.7403300000 -3.6905260000
H    1.2971120000 -4.7199470000 -0.1287780000
C   -1.9414220000 -0.3001130000  0.4441110000
C   -2.7683390000  0.7167010000  0.9496760000
C   -2.5655750000 -1.4491940000 -0.0499110000
C   -4.1542070000  0.5958220000  0.9599130000
H   -2.3233650000  1.6281400000  1.3460150000
C   -3.9586330000 -1.5778590000 -0.0504660000
H   -1.9794250000 -2.2738450000 -0.4444420000
C   -4.7583650000 -0.5570940000  0.4531880000
H   -4.7645820000  1.4020630000  1.3594930000
H   -4.4128390000 -2.4825110000 -0.4475740000
H   -5.8409330000 -0.6549670000  0.4524860000
C   -0.5991200000  4.1133340000 -1.6144930000
H   -0.7365210000  5.0821010000 -2.0873640000
O    0.0233600000 -0.1783650000  2.1240820000
C    1.9130820000  0.2896580000  0.6261840000
C    2.6175310000  0.6103010000 -0.5428520000
C    2.6936890000  0.1196810000  1.7721410000
C    3.9992110000  0.7434140000 -0.5193800000
H    2.1018900000  0.7629140000 -1.4882950000
C    4.0782460000  0.2756660000  1.7050200000
H    2.2431830000 -0.1327540000  2.7250440000
H    4.5400570000  0.9926210000 -1.4299740000
H    4.6821490000  0.1458890000  2.6012050000
N    4.7419340000  0.5824900000  0.5860280000
C   -0.9151950000 -0.8180370000  2.9916250000
H   -0.3477360000 -1.0685820000  3.8919950000
H   -1.7336830000 -0.1430130000  3.2539850000
H   -1.3194930000 -1.7343780000  2.5549190000
N    1.0067870000 -3.8316480000 -1.9710990000
