14
142-1
 C         -0.7328897168        1.1602475307       -0.2197115012
 O         -1.3915244710        0.0003260729        0.2437378083
 C         -0.7334876647       -1.1599367482       -0.2197493601
 C          0.7328929730       -1.1602166807        0.2197967655
 O          1.3915185981       -0.0003560260       -0.2438127200
 C          0.7334861689        1.1599421743        0.2197307488
 H         -1.2672827278        2.0102201319        0.2061742831
 H         -0.7836573182        1.2031852401       -1.3184176386
 H         -0.7842737930       -1.2028026255       -1.3184454667
 H         -1.2683314463       -2.0096274652        0.2061053429
 H          1.2672777465       -2.0102503633       -0.2059608161
 H          0.7836753089       -1.2029435698        1.3185191791
 H          1.2683794826        2.0096273711       -0.2060372108
 H          0.7842849949        1.2026344603        1.3184571801
