50
candidate_id=P2_C001 system=P2 charge=2 multiplicity=1
C    1.3055170000 -1.2153270000 -2.6749340000
C    0.3433840000 -1.1202040000 -1.6684760000
C    0.6221460000 -1.5698930000 -0.3743480000
C    1.8895330000 -2.1084840000 -0.1046950000
C    2.8437180000 -2.2183800000 -1.1117410000
H    1.0728600000 -0.8602320000 -3.6754890000
H   -0.6266020000 -0.6930490000 -1.9047630000
H    2.1341640000 -2.4465450000  0.9004320000
H    3.8178290000 -2.6455430000 -0.8885700000
P   -0.5380550000 -1.4430580000  1.0432050000
C    1.8404030000  1.6341210000  0.4060350000
C    2.1456070000  1.0882320000  1.6584500000
C    2.7700850000  1.5105770000 -0.6314150000
C    3.3508390000  0.4454960000  1.8427390000
H    1.4508690000  1.1352100000  2.4882610000
C    3.9631900000  0.8585110000 -0.3985400000
H    2.5902220000  1.9274800000 -1.6151410000
H    3.6526100000 -0.0082100000  2.7780520000
H    4.7313990000  0.7267920000 -1.1494610000
C   -2.1087850000 -0.9229840000  0.2501960000
C   -2.6559690000  0.3084180000  0.6227070000
C   -2.7946140000 -1.7239370000 -0.6734450000
C   -3.8526370000  0.7527270000  0.0587000000
H   -2.1478510000  0.9242230000  1.3625310000
C   -3.9940850000 -1.2873710000 -1.2282040000
H   -2.3864050000 -2.6894950000 -0.9620170000
C   -4.5211570000 -0.0445580000 -0.8674590000
H   -4.2656590000  1.7147580000  0.3508520000
H   -4.5189830000 -1.9137810000 -1.9445830000
H   -5.4568180000  0.2954520000 -1.3034440000
C    2.5537870000 -1.7686300000 -2.4011830000
H    3.3011380000 -1.8461350000 -3.1863720000
O   -0.7740590000 -3.0939950000  1.2322840000
C    0.5452770000  2.3251070000  0.1803980000
C   -0.0547240000  3.0710910000  1.2016670000
C   -0.0961600000  2.2396980000 -1.0601690000
C   -1.2597590000  3.6993640000  0.9650790000
H    0.4090600000  3.1905560000  2.1737440000
C   -1.3045920000  2.8769930000 -1.2465610000
H    0.3221730000  1.6687480000 -1.8796510000
H   -1.7797840000  4.2969760000  1.7028690000
H   -1.8646150000  2.8438890000 -2.1721500000
N   -1.8421260000  3.5818850000 -0.2386650000
C   -1.5289220000 -3.4820090000  2.3808310000
H   -1.4931470000 -4.5726520000  2.4279630000
H   -1.0963800000 -3.0636610000  3.2986340000
H   -2.5741440000 -3.1606150000  2.2911820000
N    4.2155500000  0.3554560000  0.8197220000
H    5.1005790000 -0.1250370000  0.9726730000
H   -2.7356900000  4.0459720000 -0.3930790000
