50
candidate_id=P2_C013 system=P2 charge=2 multiplicity=1
C    2.9677790000  2.9898560000 -0.4800160000
C    2.2507230000  1.8115740000 -0.6731510000
C    0.9418430000  1.6984010000 -0.1920360000
C    0.3498770000  2.7868690000  0.4529100000
C    1.0641070000  3.9714600000  0.6255200000
H    3.9872280000  3.0621640000 -0.8483870000
H    2.7177980000  0.9890530000 -1.2072500000
H   -0.6679910000  2.7329850000  0.8247090000
H    0.5897600000  4.8138260000  1.1210760000
P    0.0414230000  0.1344920000 -0.5162160000
C   -1.8397650000  0.1445000000 -0.4557800000
C   -2.5721870000 -0.4169830000 -1.5054800000
C   -2.5382710000  0.6960790000  0.6234370000
C   -3.9518020000 -0.4318010000 -1.4487060000
H   -2.0862610000 -0.8324220000 -2.3784050000
C   -3.9183690000  0.6942410000  0.6219760000
H   -2.0361580000  1.1283420000  1.4804860000
H   -4.5794860000 -0.8646480000 -2.2173110000
H   -4.5200890000  1.1217700000  1.4138250000
C    0.0314930000 -0.4430010000  1.3837060000
C   -0.6276420000 -1.6462260000  1.6910750000
C    0.6818450000  0.2130920000  2.4335530000
C   -0.6357840000 -2.1398050000  2.9748540000
H   -1.1410620000 -2.2198410000  0.9237060000
C    0.6564950000 -0.3116830000  3.7123760000
H    1.2280270000  1.1365350000  2.2810570000
H   -1.1278570000 -3.0580570000  3.2704440000
H    1.1421360000  0.1510780000  4.5625400000
C    2.3761850000  4.0729850000  0.1684310000
H    2.9334460000  4.9946860000  0.3106630000
O   -0.0110390000  0.4440230000 -2.2318750000
C    1.0219470000 -1.3758620000 -0.9024190000
C    2.2136850000 -1.6057240000 -0.2047900000
C    0.5922510000 -2.3080110000 -1.8512310000
C    2.9725360000 -2.7433860000 -0.4658920000
H    2.5676310000 -0.8973660000  0.5393870000
C    1.3366580000 -3.4634080000 -2.0833880000
H   -0.3195890000 -2.1465260000 -2.4145280000
H    3.9062870000 -2.8984330000  0.0672890000
H    0.9836820000 -4.1886510000 -2.8112260000
C   -0.5135310000  1.6639320000 -2.7507480000
H    0.2875420000  2.4095040000 -2.8312060000
H   -0.9153300000  1.4625620000 -3.7491290000
H   -1.3194090000  2.0903830000 -2.1368260000
C    2.5299080000 -3.6811800000 -1.3976080000
H    3.1140450000 -4.5768140000 -1.5902300000
N    0.0021470000 -1.4586200000  3.9458850000
N   -4.5758710000  0.1267980000 -0.4007490000
H   -0.0067110000 -1.8335030000  4.8924130000
H   -5.5944840000  0.1210520000 -0.3803830000
