50
candidate_id=P2_C003 system=P2 charge=2 multiplicity=1
C   -2.9632930000 -0.4712480000 -3.0294650000
C   -1.7783580000  0.0728190000 -2.5430180000
C   -1.1835720000 -0.4744180000 -1.3984130000
C   -1.7923450000 -1.5477420000 -0.7299040000
C   -2.9746540000 -2.0837980000 -1.2280610000
H   -3.4221250000 -0.0473360000 -3.9174950000
H   -1.3326610000  0.9221150000 -3.0510820000
H   -1.3591610000 -1.9653310000  0.1745530000
H   -3.4426950000 -2.9165640000 -0.7119990000
P    0.2769260000  0.3229310000 -0.7275290000
C    1.6805470000 -0.8288560000 -0.5338040000
C    2.9355010000 -0.2620200000 -0.2803500000
C    1.5479770000 -2.2173130000 -0.5967420000
C    4.0170130000 -1.0950960000 -0.0721950000
H    3.0917700000  0.8099760000 -0.2510630000
C    2.6619870000 -3.0057030000 -0.3829090000
H    0.6063150000 -2.7057530000 -0.8149510000
H    5.0190660000 -0.7399070000  0.1320000000
H    2.6461130000 -4.0876890000 -0.4139980000
C   -0.7066130000  0.2354020000  1.8345560000
C    0.1364290000 -0.7443230000  2.3771180000
C   -2.0647950000  0.2014330000  2.1618470000
C   -0.3696510000 -1.7443740000  3.2031190000
H    1.2020440000 -0.7364200000  2.1667900000
C   -2.5715180000 -0.7974960000  2.9919060000
H   -2.7461900000  0.9522730000  1.7774020000
H    0.3030430000 -2.4942350000  3.6102960000
H   -3.6313810000 -0.8058240000  3.2308990000
C   -3.5584050000 -1.5489230000 -2.3762040000
H   -4.4835250000 -1.9702410000 -2.7589420000
O    0.7796300000  1.4551750000 -1.7225050000
C   -0.1404180000  1.2877880000  0.8741440000
C   -1.1260550000  2.3236920000  0.3956760000
C    1.0995040000  1.9638320000  1.3999340000
C   -0.7847780000  3.6161900000  0.2310990000
H   -2.1220150000  2.0132700000  0.1014480000
C    1.3423300000  3.2736840000  1.2073310000
H    1.8236830000  1.3770850000  1.9528730000
H   -1.4873940000  4.3472140000 -0.1530920000
H    2.2399390000  3.7511140000  1.5843550000
C    1.4349810000  1.1657370000 -2.9860190000
H    1.1696130000  1.9885780000 -3.6490910000
H    2.5136920000  1.1417770000 -2.8216770000
H    1.0899040000  0.2181490000 -3.4052000000
N    3.8428880000 -2.4240120000 -0.1237890000
H    4.6533520000 -3.0235350000  0.0312900000
C   -1.7295000000 -1.7793790000  3.5081090000
H   -2.1268210000 -2.5601680000  4.1507390000
N    0.4558270000  4.0978330000  0.5601470000
H    0.6396120000  5.0900100000  0.5078820000
