50
candidate_id=P2_C011 system=P2 charge=2 multiplicity=1
C   -0.4639490000  4.1662190000 -0.8842910000
C   -0.2015890000  2.8169330000 -1.1078560000
C   -0.4559960000  1.8680350000 -0.1098650000
C   -0.9974370000  2.2977660000  1.1092740000
C   -1.2921950000  3.6420780000  1.3175610000
H   -0.2442780000  4.8900730000 -1.6638850000
H    0.1993580000  2.5068030000 -2.0661280000
H   -1.1913410000  1.5906990000  1.9095500000
H   -1.7269200000  3.9543090000  2.2627890000
P   -0.0996620000  0.0840800000 -0.4035560000
C   -1.5756940000 -1.0514050000 -0.3433130000
C   -1.5641330000 -2.2584790000 -1.0490870000
C   -2.7273460000 -0.6908240000  0.3602560000
C   -2.6735960000 -3.0766260000 -1.0153270000
H   -0.7098480000 -2.5712700000 -1.6384500000
C   -3.8217590000 -1.5314190000  0.3492240000
H   -2.7971630000  0.2337920000  0.9204650000
H   -2.7355590000 -4.0281450000 -1.5277870000
H   -4.7498780000 -1.3160140000  0.8637070000
C    0.4306560000 -0.2970960000  1.4056870000
C   -0.0173780000 -1.3900520000  2.1533620000
C    1.4432820000  0.5023490000  1.9619930000
C    0.5084280000 -1.6644740000  3.4197020000
H   -0.7803170000 -2.0602610000  1.7681710000
C    1.9694210000  0.2368340000  3.2214060000
H    1.8310430000  1.3545050000  1.4059680000
C    1.4997390000 -0.8517620000  3.9594120000
H    0.1374420000 -2.5193190000  3.9793500000
H    2.7463200000  0.8790920000  3.6280800000
H    1.9073400000 -1.0630060000  4.9443860000
C   -1.0170420000  4.5813520000  0.3251220000
H   -1.2334680000  5.6326070000  0.4941940000
O   -0.3345580000  0.2012730000 -2.1500210000
C    1.6076550000 -0.4617980000 -0.9366290000
C    2.5182320000  0.4560840000 -1.4692590000
C    2.0159990000 -1.7865980000 -0.7466000000
C    3.7928320000  0.0386210000 -1.7899480000
H    2.2590910000  1.4948970000 -1.6330050000
C    3.2915210000 -2.1637550000 -1.1064120000
H    1.3589000000 -2.5308360000 -0.3096210000
H    4.5547470000  0.6927330000 -2.1949070000
H    3.6733350000 -3.1712490000 -1.0003500000
N    4.1365100000 -1.2469580000 -1.6076740000
C   -1.5687000000  0.5530590000 -2.7563000000
H   -1.3560690000  1.1922060000 -3.6198480000
H   -2.0949000000 -0.3455460000 -3.1034310000
H   -2.2323330000  1.1051860000 -2.0776820000
N   -3.7588150000 -2.6906730000 -0.3242930000
H    5.0807780000 -1.5381730000 -1.8546310000
H   -4.5744570000 -3.3013100000 -0.3183200000
