50
candidate_id=P2_C007 system=P2 charge=2 multiplicity=1
C   -1.8883910000 -0.9935550000  3.0546430000
C   -1.2992330000 -1.0222160000  1.8112690000
C   -0.4854620000  0.0367450000  1.3736760000
C   -0.3270740000  1.1198420000  2.2457780000
C   -0.9325540000  1.1164500000  3.4881220000
H   -2.5169790000 -1.7832100000  3.4470310000
H   -1.4806600000 -1.8910970000  1.1853880000
H    0.2659010000  1.9873430000  1.9799600000
H   -0.8394990000  1.9223640000  4.2058360000
P    0.1997530000 -0.0130380000 -0.4906410000
C    0.8846750000 -1.7110250000 -0.2617790000
C    1.5049940000 -2.0858660000  0.9377370000
C    0.7990020000 -2.6485380000 -1.2980330000
C    2.0436780000 -3.3602500000  1.0884060000
H    1.5743650000 -1.3955430000  1.7724240000
C    1.3067610000 -3.9351250000 -1.1324750000
H    0.3382050000 -2.3767670000 -2.2409420000
H    2.5377720000 -3.6256830000  2.0186640000
H    1.2160530000 -4.6540250000 -1.9418670000
C    1.3342060000  1.4101300000 -0.2535960000
C    2.4299700000  1.3208500000  0.6091840000
C    1.1271960000  2.5861770000 -0.9820100000
C    3.3045800000  2.3965890000  0.7457150000
H    2.6153850000  0.4171530000  1.1812430000
C    1.9870620000  3.6702690000 -0.8216610000
H    0.3034190000  2.6609440000 -1.6865900000
H    4.1599670000  2.3102680000  1.4097740000
H    1.8088460000  4.5833700000 -1.3826740000
O    0.4434810000 -0.0201910000 -2.2167560000
C   -1.5796750000  0.2648330000 -0.9696510000
C   -2.2107340000  1.4812010000 -0.6886490000
C   -2.3167120000 -0.7561270000 -1.5787580000
C   -3.5323680000  1.6576050000 -1.0390200000
H   -1.6928350000  2.2967270000 -0.1965130000
C   -3.6419580000 -0.5400320000 -1.8921570000
H   -1.8793040000 -1.7180990000 -1.8170070000
H   -4.0826500000  2.5740800000 -0.8671080000
H   -4.2768220000 -1.2813030000 -2.3609400000
C    1.7382080000 -0.0475590000 -2.7980770000
H    2.0548270000  0.9661530000 -3.0721500000
H    2.4924910000 -0.4771420000 -2.1263140000
H    1.6919480000 -0.6635750000 -3.7022940000
C    3.0790940000  3.5767970000  0.0396510000
H    3.7565820000  4.4183650000  0.1544510000
C    1.9377730000 -4.2918430000  0.0569030000
H    2.3455600000 -5.2912790000  0.1806210000
N   -1.6849850000  0.0687440000  3.8558190000
N   -4.2027920000  0.6503140000 -1.6221280000
H   -5.1800860000  0.7946820000 -1.8706850000
H   -2.1204340000  0.0778750000  4.7762190000
