50
candidate_id=P2_C010 system=P2 charge=2 multiplicity=1
C    1.2177030000  4.1292640000 -0.4541850000
C    0.7845130000  2.8896060000 -0.9162370000
C    0.2981610000  1.9329490000 -0.0139960000
C    0.2435630000  2.2389390000  1.3515860000
C    0.6542590000  3.4879240000  1.8029150000
H    1.6063030000  4.8566780000 -1.1606210000
H    0.8353160000  2.6705750000 -1.9777640000
H   -0.0906430000  1.5045590000  2.0745300000
H    0.6008360000  3.7161720000  2.8632170000
P   -0.2534830000  0.3570990000 -0.7278520000
C   -1.9005220000 -0.2531330000 -0.1714470000
C   -2.6234850000 -1.0678180000 -1.0476270000
C   -2.4860940000  0.1444600000  1.0310210000
C   -3.8845810000 -1.4993580000 -0.6848890000
H   -2.2325650000 -1.3642080000 -2.0142150000
C   -3.7568250000 -0.2958140000  1.3410820000
H   -1.9832010000  0.7838530000  1.7430750000
H   -4.5000890000 -2.1414470000 -1.3017870000
H   -4.2778930000 -0.0298520000  2.2519870000
C    0.7319830000 -0.8535370000  0.9473240000
C    0.0158390000 -1.9237380000  1.4902560000
C    1.8295100000 -0.3572850000  1.6531960000
C    0.3469870000 -2.4432530000  2.7410910000
H   -0.8069180000 -2.3797390000  0.9434770000
C    2.1687780000 -0.8709260000  2.9027520000
H    2.4385010000  0.4398350000  1.2318540000
H   -0.2291090000 -3.2679250000  3.1529670000
H    3.0209790000 -0.4637270000  3.4408900000
C    1.1459360000  4.4330500000  0.9030630000
H    1.4762340000  5.4038610000  1.2615200000
O   -0.7032580000  0.8277390000 -2.2391480000
C    0.9900940000 -0.8247140000 -1.0933650000
C    2.3328480000 -0.3505970000 -1.3535540000
C    0.7085840000 -2.1675950000 -1.5484320000
C    3.3065870000 -1.2373670000 -1.6848300000
H    2.5927670000  0.6958710000 -1.2490120000
C    1.7363530000 -2.9948060000 -1.8704670000
H   -0.2993190000 -2.5593960000 -1.5798290000
H    4.3369770000 -0.9420770000 -1.8425740000
H    1.5850290000 -4.0271270000 -2.1621040000
C   -1.7752600000  1.7469530000 -2.5025880000
H   -1.4461450000  2.4054140000 -3.3087810000
H   -2.6569070000  1.1839110000 -2.8218440000
H   -2.0247380000  2.3497100000 -1.6233190000
N   -4.4030120000 -1.1037080000  0.4864380000
H   -5.3399190000 -1.4222990000  0.7331100000
C    1.4218300000 -1.9127670000  3.4543060000
H    1.6868700000 -2.3199060000  4.4263710000
N    3.0220230000 -2.5520700000 -1.8791540000
H    3.7622770000 -3.1833070000 -2.1630250000
