50
candidate_id=P2_C018 system=P2 charge=2 multiplicity=1
C   -2.9692600000  2.8782810000 -0.3486030000
C   -1.8514620000  2.1170490000 -0.6786080000
C   -1.8193150000  0.7528140000 -0.3597610000
C   -2.9231070000  0.1558640000  0.2713730000
C   -4.0347990000  0.9249540000  0.5934330000
H   -2.9881340000  3.9352620000 -0.5963560000
H   -1.0190310000  2.5922710000 -1.1866720000
H   -2.9264790000 -0.9027740000  0.5081790000
H   -4.8856150000  0.4579330000  1.0801570000
P   -0.3780210000 -0.2375310000 -0.7844190000
C    0.3590770000 -1.2962360000  0.6280650000
C    1.4523150000 -2.0820340000 -0.0604250000
C   -0.6803150000 -2.2519290000  1.1773270000
C    1.2973230000 -3.3748480000 -0.3983280000
H    2.3537980000 -1.5707220000 -0.3785050000
C   -0.7340970000 -3.5414040000  0.8001840000
H   -1.4063020000 -1.8876730000  1.8945070000
H    2.0622250000 -3.9167450000 -0.9432430000
H   -1.4926970000 -4.2155720000  1.1820330000
C    0.8607060000 -0.3467380000  1.7165490000
C    2.2232330000 -0.2136970000  2.0004160000
C   -0.0470640000  0.4150880000  2.4653650000
C    2.6398640000  0.6660660000  2.9777860000
H    2.9781820000 -0.7875890000  1.4794590000
C    0.4118990000  1.2832000000  3.4312610000
H   -1.1167420000  0.3454610000  2.3126840000
H    3.6784250000  0.8177510000  3.2435200000
H   -0.2358770000  1.9019340000  4.0390350000
C   -4.0569830000  2.2861830000  0.2893390000
H   -4.9275550000  2.8837350000  0.5443270000
O   -0.7279860000 -1.2798470000 -1.9351050000
C    0.9413030000  0.7686970000 -1.4726620000
C    1.4883540000  1.8210560000 -0.7233070000
C    1.4656060000  0.4515430000 -2.7304250000
C    2.5515050000  2.5531590000 -1.2398310000
H    1.0825950000  2.0869480000  0.2489610000
C    2.5322400000  1.1903380000 -3.2364660000
H    1.0478610000 -0.3644010000 -3.3107340000
H    2.9688660000  3.3725480000 -0.6623560000
H    2.9382470000  0.9449140000 -4.2132410000
C   -2.0329450000 -1.8458770000 -2.1956620000
H   -2.7378250000 -1.0522480000 -2.4522060000
H   -1.8856990000 -2.5078030000 -3.0483520000
H   -2.3797130000 -2.4146490000 -1.3314270000
C    3.0746380000  2.2373030000 -2.4938820000
H    3.9060490000  2.8111930000 -2.8931960000
N    1.7323610000  1.3876770000  3.6532180000
N    0.1787030000 -4.0965840000 -0.0638170000
H    2.0575200000  2.0312970000  4.3727830000
H    0.1523470000 -5.0899650000 -0.2468700000
