50
candidate_id=P2_C022 system=P2 charge=2 multiplicity=1
C    4.6317040000 -0.5904480000  1.9729390000
C    3.3156950000 -0.8721730000  1.6055980000
C    2.7687100000 -0.3323760000  0.4344320000
C    3.5653730000  0.5007660000 -0.3642100000
C    4.8783740000  0.7837590000  0.0016810000
H    5.0423020000 -1.0141930000  2.8853990000
H    2.7087590000 -1.5153770000  2.2396440000
H    3.1603780000  0.9347590000 -1.2746150000
H    5.4865490000  1.4301200000 -0.6254800000
P    1.0362030000 -0.8055050000  0.0410900000
C    0.4587610000  0.6597060000 -0.9117910000
C   -0.2062090000  0.5161570000 -2.1334780000
C    0.5445440000  1.9349150000 -0.3359830000
C   -0.7610210000  1.6239910000 -2.7751320000
H   -0.2949130000 -0.4650530000 -2.5929370000
C   -0.0121900000  3.0402380000 -0.9735810000
H    1.0517060000  2.0708250000  0.6170590000
H   -1.2682520000  1.4953500000 -3.7278090000
H    0.0652380000  4.0224000000 -0.5144450000
C   -2.5182930000  0.3787900000  0.9054910000
C   -3.1802940000  1.3425930000  0.1385620000
C   -1.7726630000  0.7905420000  2.0165720000
C   -3.0860940000  2.6723430000  0.4929480000
H   -3.7800080000  1.0750370000 -0.7234480000
C   -1.7110400000  2.1304290000  2.3332870000
H   -1.2179770000  0.0858500000  2.6244250000
H   -3.5697290000  3.4741060000 -0.0499050000
H   -1.1510440000  2.5244530000  3.1717030000
C    5.4132760000  0.2380710000  1.1704630000
H    6.4379050000  0.4623450000  1.4549390000
O    1.1806830000 -1.9747250000 -1.1352210000
C   -2.5730930000 -1.0590760000  0.5390840000
C   -2.5248460000 -2.0475710000  1.5289090000
C   -2.6346660000 -1.4473540000 -0.8035840000
C   -2.5094590000 -3.3759140000  1.1603900000
H   -2.5053430000 -1.8006120000  2.5838340000
C   -2.6079470000 -2.7882400000 -1.1240050000
H   -2.6713960000 -0.7224840000 -1.6075190000
H   -2.4687580000 -4.1955240000  1.8665900000
H   -2.6307920000 -3.1635890000 -2.1389300000
C    2.1448020000 -1.8949390000 -2.1902510000
H    3.1475420000 -2.1070900000 -1.8050490000
H    1.8678360000 -2.6572810000 -2.9222540000
H    2.1404200000 -0.9116260000 -2.6720400000
N   -2.3662380000  3.0204500000  1.5710040000
N   -2.5404270000 -3.7012830000 -0.1422150000
C   -0.6672300000  2.8880340000 -2.1969930000
H   -1.1025510000  3.7508380000 -2.6940030000
H   -2.5185530000 -4.6876700000 -0.3975930000
H   -2.3083540000  4.0071670000  1.8182340000
