50
candidate_id=P2_C017 system=P2 charge=2 multiplicity=1
C   -0.6746140000  3.2106330000 -1.9890030000
C   -0.7733840000  1.9124410000 -1.5260580000
C   -0.3117020000  1.6186320000 -0.2432410000
C    0.1928910000  2.6362800000  0.5681420000
C    0.2462100000  3.9209140000  0.0696630000
H   -0.9908150000  3.5229250000 -2.9761530000
H   -1.2114780000  1.1570630000 -2.1693640000
H    0.5546720000  2.4419420000  1.5712740000
H    0.6200050000  4.7693600000  0.6285370000
P   -0.4258460000 -0.0806520000  0.4345630000
C   -2.2269520000 -0.3669240000  0.2426920000
C   -3.1455840000  0.6102360000  0.6544930000
C   -2.6988280000 -1.5513490000 -0.3332470000
C   -4.5111290000  0.4002230000  0.4991970000
H   -2.7987650000  1.5386670000  1.1035840000
C   -4.0693150000 -1.7585700000 -0.4903690000
H   -2.0091850000 -2.3220470000 -0.6648430000
H   -5.2149360000  1.1611440000  0.8241000000
H   -4.4256200000 -2.6811560000 -0.9396080000
C    1.8961260000  0.0002820000  0.3890130000
C    2.5772710000  0.6681490000 -0.6290340000
C    2.5926970000 -0.3470040000  1.5468440000
C    3.9171280000  1.0270360000 -0.4806230000
H    2.0703090000  0.9187930000 -1.5609870000
C    3.9352290000  0.0046580000  1.7033290000
H    2.0955130000 -0.8976050000  2.3421410000
H    4.4289320000  1.5564040000 -1.2810300000
H    4.4620950000 -0.2651860000  2.6157950000
O   -0.2085310000 -0.0678140000  2.0157250000
C    0.4152510000 -1.3948710000 -0.3912360000
C    0.6288220000 -1.4369580000 -1.8072950000
C    0.6635730000 -2.6054670000  0.3401050000
C    1.2969990000 -2.4950650000 -2.3467480000
H    0.3064910000 -0.6357960000 -2.4599360000
C    1.3243740000 -3.6272030000 -0.2679220000
H    0.3723240000 -2.7053810000  1.3790230000
H    1.5288980000 -2.5667600000 -3.4025120000
H    1.5780110000 -4.5498960000  0.2396500000
C   -1.1384100000 -0.6055700000  2.9855940000
H   -0.5481470000 -0.7315460000  3.8935150000
H   -1.9486360000  0.1049570000  3.1572090000
H   -1.5344400000 -1.5693910000  2.6605170000
N   -0.1736020000  4.1594690000 -1.1845010000
N    1.6757400000 -3.5451750000 -1.5776460000
C    4.5998040000  0.6983880000  0.6916370000
H    5.6450660000  0.9715300000  0.8108860000
C   -4.9743290000 -0.7856350000 -0.0744970000
H   -6.0415160000 -0.9478060000 -0.1983240000
H   -0.1184880000  5.1135290000 -1.5394280000
H    2.1479170000 -4.3310410000 -2.0118810000
