50
candidate_id=P2_C009 system=P2 charge=2 multiplicity=1
C    3.4652840000  1.7622140000 -1.1749210000
C    2.3323570000  0.9606360000 -1.0694130000
C    1.1132100000  1.5182030000 -0.6594030000
C    1.0358490000  2.8864120000 -0.3671530000
C    2.1741440000  3.6813870000 -0.4704010000
H    4.4075090000  1.3256280000 -1.4932490000
H    2.4006890000 -0.0955420000 -1.3170110000
H    0.0936520000  3.3359300000 -0.0679860000
H    2.1111130000  4.7418360000 -0.2438220000
P   -0.3211890000  0.4159340000 -0.5873620000
C   -1.5778310000  1.1308360000  0.4901600000
C   -2.9271430000  0.9884760000  0.1417490000
C   -1.2345520000  1.6757060000  1.7358640000
C   -3.9210990000  1.4183020000  1.0180850000
H   -3.2032730000  0.5511760000 -0.8139560000
C   -2.2327510000  2.0986080000  2.6076750000
H   -0.1917840000  1.7759260000  2.0260370000
H   -4.9655830000  1.3150730000  0.7382640000
H   -1.9613220000  2.5296530000  3.5670570000
C    1.0741590000 -1.8635470000  0.6030800000
C    1.2042370000 -1.1816600000  1.8212980000
C    2.1752840000 -2.5838640000  0.1281980000
C    2.4012180000 -1.2052480000  2.4993960000
H    0.3852220000 -0.6193580000  2.2542230000
C    3.3564950000 -2.5798610000  0.8409250000
H    2.1366210000 -3.1573430000 -0.7892700000
H    2.5702830000 -0.6917770000  3.4374100000
H    4.2463070000 -3.1104950000  0.5262630000
C    3.3874720000  3.1205440000 -0.8690910000
H    4.2732400000  3.7449610000 -0.9458210000
O   -0.9642580000  0.3310300000 -2.0685680000
C   -0.2252230000 -1.8328740000 -0.1632510000
C   -0.2595520000 -2.4163810000 -1.4937910000
C   -1.4279450000 -2.0878860000  0.6188660000
C   -1.4165030000 -2.8941940000 -2.0163000000
H    0.6181930000 -2.3884780000 -2.1285680000
C   -2.5499130000 -2.5777340000  0.0318370000
H   -1.4597770000 -1.8467800000  1.6749760000
H   -1.4861770000 -3.2781350000 -3.0268730000
H   -3.4715990000 -2.7371250000  0.5784720000
C   -1.1912270000  1.5154260000 -2.8587080000
H   -0.2345560000  1.9430950000 -3.1708340000
H   -1.7557480000  1.1864190000 -3.7320090000
H   -1.7703080000  2.2544560000 -2.2971210000
N    3.4379730000 -1.8935190000  1.9906400000
N   -2.5604790000 -2.9327750000 -1.2803540000
C   -3.5757380000  1.9730330000  2.2490530000
H   -4.3524460000  2.3068070000  2.9314180000
H   -3.4013770000 -3.3274070000 -1.6851890000
H    4.3191390000 -1.9009240000  2.5020320000
