50
candidate_id=P2_C005 system=P2 charge=2 multiplicity=1
C    0.5773750000 -2.9107160000 -2.5213480000
C    0.2151740000 -1.7195590000 -1.8952430000
C    0.3457160000 -1.5917010000 -0.5102270000
C    0.8352730000 -2.6668360000  0.2406500000
C    1.1792600000 -3.8612990000 -0.3881910000
H    0.4790380000 -2.9990480000 -3.5997530000
H   -0.1648290000 -0.9037900000 -2.5013850000
H    0.9519170000 -2.5791640000  1.3184960000
H    1.5488240000 -4.6931240000  0.2049560000
P   -0.0764820000 -0.0883090000  0.4594230000
C    1.8733610000  0.2984360000  0.5760560000
C    2.5471830000  0.5477590000 -0.6312950000
C    2.6464630000  0.2774390000  1.7435690000
C    3.9071010000  0.7567730000 -0.6537760000
H    2.0180910000  0.5771470000 -1.5795090000
C    4.0099480000  0.4928620000  1.6858850000
H    2.1973120000  0.0918010000  2.7103770000
H    4.4773020000  0.9502710000 -1.5538970000
H    4.6582160000  0.4888900000  2.5536730000
C   -1.9779980000 -0.3018080000  0.4146540000
C   -2.6117810000 -1.4606620000 -0.0444870000
C   -2.7884660000  0.7435570000  0.8860410000
C   -4.0051070000 -1.5677720000 -0.0486100000
H   -2.0304880000 -2.3053040000 -0.4012010000
C   -4.1762420000  0.6418310000  0.8891690000
H   -2.3364370000  1.6565250000  1.2695120000
C   -4.7918660000 -0.5176010000  0.4148740000
H   -4.4709130000 -2.4790790000 -0.4148530000
H   -4.7774370000  1.4671840000  1.2618140000
H   -5.8754660000 -0.6003130000  0.4109600000
C    1.0540150000 -3.9845710000 -1.7708900000
H    1.3269450000 -4.9140760000 -2.2627550000
O    0.0128430000 -0.2259400000  2.0906600000
C   -0.2626310000  1.5700110000 -0.4186680000
C    0.1957640000  2.7126610000  0.2426770000
C   -0.9099290000  1.7151800000 -1.6482070000
C    0.0093290000  3.9541200000 -0.3306930000
H    0.6924520000  2.6572050000  1.2056070000
C   -1.0411030000  2.9712730000 -2.2031410000
H   -1.3332210000  0.8701490000 -2.1777280000
H    0.3222640000  4.8837160000  0.1277280000
H   -1.5111290000  3.1615660000 -3.1598810000
N   -0.5847990000  4.0416340000 -1.5310970000
C   -0.9390990000 -0.8369090000  2.9731090000
H   -0.3794930000 -1.0466020000  3.8874670000
H   -1.7611430000 -0.1529030000  3.1939880000
H   -1.3285310000 -1.7710710000  2.5625820000
N    4.5975880000  0.7232680000  0.5011190000
H    5.6029960000  0.8797880000  0.4747820000
H   -0.7017490000  4.9632480000 -1.9491970000
