11
1679-1
 N         -1.3716899271        0.0000893196        0.0000172895
 C         -0.6915666819        1.1333352318        0.0000179978
 C          0.6941348875        1.1920614778       -0.0000386627
 C          1.4007480488       -0.0001001918        0.0000403593
 C          0.6940126905       -1.1921313026        0.0000228796
 C         -0.6917117900       -1.1332515908       -0.0000279828
 H         -1.2894615723        2.0357094520       -0.0001292244
 H          1.2048505192        2.1428470403        0.0000368502
 H          2.4815844098       -0.0000326781       -0.0001170653
 H          1.2043869185       -2.1430727173       -0.0001926178
 H         -1.2896411993       -2.0356630368       -0.0000120939
