48
candidate_id=P0_C004 system=P0 charge=0 multiplicity=1
C    1.6557880000 -1.4413450000 -3.0808060000
C    1.0988330000 -1.2965170000 -1.8142720000
C    0.4757610000 -0.1031830000 -1.4128430000
C    0.4504900000  0.9490630000 -2.3325210000
C    1.0083110000  0.8140520000 -3.6082920000
H    2.1278480000 -2.3802850000 -3.3596720000
H    1.1570850000 -2.1378710000 -1.1247910000
H    0.0002090000  1.9016420000 -2.0692960000
H    0.9700890000  1.6514630000 -4.3009050000
P   -0.1201360000  0.0273340000  0.4255270000
C   -1.1385420000 -1.5290980000  0.2867930000
C   -1.8789520000 -1.8079430000 -0.8638660000
C   -1.1924660000 -2.4633020000  1.3218050000
C   -2.6398040000 -2.9714130000 -0.9183340000
H   -1.8706280000 -1.1480500000 -1.7245770000
C   -1.9518200000 -3.6181920000  1.1561290000
H   -0.6643830000 -2.3027650000  2.2539060000
H   -3.2376260000 -3.1869330000 -1.8003690000
H   -1.9831550000 -4.3635950000  1.9470330000
C   -0.9875560000  1.6358450000  0.2208010000
C   -2.1580940000  1.7391340000 -0.5341230000
C   -0.4848080000  2.7711950000  0.8640560000
C   -2.8150740000  2.9633550000 -0.6486550000
H   -2.5709520000  0.8723720000 -1.0409040000
C   -1.1275580000  3.9994560000  0.7256330000
H    0.4050760000  2.7051200000  1.4836660000
C   -2.2962000000  4.0983620000 -0.0285960000
H   -3.7309450000  3.0270440000 -1.2298560000
H   -0.7189650000  4.8770130000  1.2192940000
H   -2.8030400000  5.0544310000 -0.1274460000
C    1.6101900000 -0.3809940000 -3.9889820000
H    2.0435750000 -0.4878850000 -4.9800600000
O   -0.4301320000  0.0887320000  2.1932160000
C    1.6584720000  0.0008210000  0.9511310000
C    2.1919440000 -1.0408080000  1.7091970000
C    2.5253850000  1.0152620000  0.5411360000
C    3.5502290000 -1.0244000000  2.0120760000
H    1.5811440000 -1.8641800000  2.0618160000
C    3.8603910000  0.9561640000  0.9251450000
H    2.1869770000  1.8432310000 -0.0746910000
H    3.9860380000 -1.8382390000  2.5867490000
H    4.5438870000  1.7492910000  0.6318660000
N    4.3837410000 -0.0452690000  1.6428950000
C   -1.7277560000  0.2919410000  2.7120070000
H   -1.8174560000 -0.2638940000  3.6533570000
H   -1.9073940000  1.3569830000  2.9151650000
H   -2.5201930000 -0.0614880000  2.0364800000
N   -2.6776070000 -3.8787310000  0.0638060000
