48
candidate_id=P0_C006 system=P0 charge=0 multiplicity=1
C   -4.8283390000  0.9189020000  0.0813580000
C   -3.5433460000  0.5700440000 -0.3243800000
C   -2.7538230000 -0.2783840000  0.4656390000
C   -3.2796020000 -0.7658920000  1.6690600000
C   -4.5676780000 -0.4177110000  2.0763400000
H   -5.4306200000  1.5766540000 -0.5396280000
H   -3.1560430000  0.9644050000 -1.2601460000
H   -2.6777240000 -1.4196750000  2.2969540000
H   -4.9613430000 -0.8008910000  3.0138030000
P   -1.0570390000 -0.8367430000  0.0289120000
C    2.5786500000 -1.0873980000  0.5524430000
C    2.5943490000 -1.5182860000 -0.7784520000
C    2.5133360000 -2.0818050000  1.5351830000
C    2.5199000000 -2.8774250000 -1.0586410000
H    2.6365180000 -0.8103570000 -1.5993800000
C    2.4465600000 -3.4162990000  1.1541310000
H    2.5223370000 -1.8312060000  2.5915880000
H    2.5143210000 -3.2178290000 -2.0914850000
H    2.3939280000 -4.1946310000  1.9119020000
C    2.5986240000  0.3551260000  0.9037500000
C    3.2784360000  1.2828160000  0.1034670000
C    1.9151530000  0.8182650000  2.0365480000
C    3.2801950000  2.6361810000  0.4312930000
H    3.8249130000  0.9475500000 -0.7739210000
C    1.9177090000  2.1717360000  2.3640520000
H    1.3554110000  0.1218860000  2.6551660000
H    3.8142660000  3.3408860000 -0.2004170000
H    1.3741960000  2.5130320000  3.2411160000
C   -5.3422490000  0.4250240000  1.2821110000
H   -6.3449360000  0.7010420000  1.5977240000
O   -1.2821090000 -1.9921500000 -1.1443750000
C   -0.4544010000  0.6050580000 -0.9459360000
C   -0.4784010000  1.8905730000 -0.3965130000
C    0.1785130000  0.4470340000 -2.1799070000
C    0.1097390000  2.9374460000 -1.0958560000
H   -0.9458090000  2.0876040000  0.5646700000
C    0.7354770000  1.5598290000 -2.8033140000
H    0.2476170000 -0.5248270000 -2.6594790000
H    0.0983840000  3.9424740000 -0.6810900000
H    1.2274490000  1.4523230000 -3.7673670000
C   -2.2690150000 -1.8722730000 -2.1735860000
H   -2.2167160000 -0.9000540000 -2.6751740000
H   -2.0592380000 -2.6637670000 -2.8967450000
H   -3.2719030000 -2.0144780000 -1.7578410000
N    2.4421960000 -3.8290860000 -0.1201770000
C    2.6009210000  3.0856990000  1.5631130000
H    2.5996600000  4.1426600000  1.8155700000
N    0.7097370000  2.7927970000 -2.2849570000
