48
candidate_id=P0_C011 system=P0 charge=0 multiplicity=1
C    5.0389040000  0.1650130000 -0.5724510000
C    3.6635630000  0.3114610000 -0.7228010000
C    2.8405440000  0.4523850000  0.4032780000
C    3.4152460000  0.4442030000  1.6774410000
C    4.7945870000  0.2860920000  1.8293540000
H    5.6716600000  0.0581450000 -1.4496040000
H    3.2272240000  0.3146090000 -1.7193510000
H    2.7865440000  0.5628110000  2.5575920000
H    5.2323700000  0.2772930000  2.8239050000
P    1.0184080000  0.6678450000  0.2692440000
C   -2.6753820000  0.9362620000  0.3215760000
C   -2.5671610000  1.3154940000 -1.0210220000
C   -2.8724580000  1.9650410000  1.2505760000
C   -2.6563790000  2.6597550000 -1.3627040000
H   -2.3965950000  0.5819940000 -1.8019660000
C   -2.9514740000  3.2804910000  0.8091420000
H   -2.9872620000  1.7542580000  2.3093730000
H   -2.5630990000  2.9606350000 -2.4035900000
H   -3.1114150000  4.0833170000  1.5250950000
C   -2.5836670000 -0.4859270000  0.7407130000
C   -3.0280320000 -1.5121980000 -0.1037320000
C   -2.0401350000 -0.8300190000  1.9858560000
C   -2.9378240000 -2.8449190000  0.2891550000
H   -3.4648960000 -1.2724450000 -1.0693660000
C   -1.9502060000 -2.1630440000  2.3786540000
H   -1.6619420000 -0.0552220000  2.6471470000
H   -3.2891250000 -3.6264620000 -0.3790870000
H   -1.5172150000 -2.4102390000  3.3443340000
C    5.6053340000  0.1486780000  0.7053520000
H    6.6794760000  0.0298870000  0.8207840000
O    0.8855250000  1.7802710000 -0.9640790000
C    0.6121720000 -0.8296990000 -0.7125390000
C    0.7422280000 -2.0836790000 -0.1089340000
C    0.1195830000 -0.7873910000 -2.0166530000
C    0.3828840000 -3.2183640000 -0.8251000000
H    1.1141090000 -2.1877570000  0.9075020000
C   -0.2140870000 -1.9827610000 -2.6483350000
H   -0.0065840000  0.1528520000 -2.5422030000
H    0.4746880000 -4.2013340000 -0.3694900000
H   -0.5990700000 -1.9690340000 -3.6655110000
C    0.7782550000  3.1473270000 -0.5617540000
H    1.7391860000  3.5161750000 -0.1825030000
H    0.5001810000  3.7172570000 -1.4508450000
H    0.0090980000  3.2745880000  0.2091330000
N   -2.8482640000  3.6439150000 -0.4757490000
C   -2.3994770000 -3.1755220000  1.5321530000
H   -2.3248680000 -4.2161950000  1.8360270000
N   -0.0910080000 -3.1863510000 -2.0780740000
