48
candidate_id=P0_C016 system=P0 charge=0 multiplicity=1
C   -0.9563980000  3.2037740000 -1.8565140000
C   -0.1650430000  2.2026250000 -1.2982110000
C   -0.5376430000  1.6202700000 -0.0805600000
C   -1.7019540000  2.0444480000  0.5731020000
C   -2.4812530000  3.0512120000  0.0125520000
H   -0.6645500000  3.6546700000 -2.8006060000
H    0.7391660000  1.8844680000 -1.8099030000
H   -2.0045190000  1.5884460000  1.5109860000
H   -3.3813440000  3.3804590000  0.5237610000
P    0.3808420000  0.2108380000  0.5615510000
C   -1.8062460000 -1.2869740000 -0.0591680000
C   -2.3198830000 -1.5094630000  1.2219600000
C   -2.7112940000 -0.8706390000 -1.0362090000
C   -3.6707740000 -1.2926580000  1.4653780000
H   -1.6887170000 -1.8413460000  2.0396340000
C   -4.0461340000 -0.6788280000 -0.6949180000
H   -2.3999310000 -0.6867420000 -2.0582480000
H   -4.0756690000 -1.4588190000  2.4608250000
H   -4.7544970000 -0.3444660000 -1.4492210000
C    2.1448540000  0.5213830000  0.3142070000
C    3.0334570000 -0.4738250000 -0.1051940000
C    2.6288970000  1.7955250000  0.6487710000
C    4.3935100000 -0.1883400000 -0.2054750000
H    2.6826580000 -1.4672040000 -0.3601880000
C    3.9883890000  2.0709530000  0.5501120000
H    1.9483520000  2.5739030000  0.9839810000
C    4.8709660000  1.0796600000  0.1192130000
H    5.0784850000 -0.9626740000 -0.5386430000
H    4.3574020000  3.0598350000  0.8064730000
H    5.9324300000  1.2972950000  0.0381680000
C   -2.1126470000  3.6276570000 -1.2032330000
H   -2.7269820000  4.4095770000 -1.6410820000
O    0.1022480000  0.3303250000  2.1544260000
C   -0.3148720000 -1.4582810000 -0.3570170000
C    0.2681660000 -2.7137910000  0.1948180000
C    0.0894270000 -1.3153180000 -1.7808060000
C    1.1723050000 -3.4563740000 -0.5095040000
H   -0.0238770000 -3.0412550000  1.1878530000
C    1.0257990000 -2.1403610000 -2.3468570000
H   -0.3182260000 -0.5054620000 -2.3782170000
H    1.5696960000 -4.3560980000 -0.0383460000
H    1.3118980000 -1.9469430000 -3.3815590000
N    1.6293900000 -3.2078430000 -1.7682070000
C    0.7794410000 -0.5384770000  3.0838460000
H    0.5289460000 -0.1601710000  4.0752220000
H    0.4263360000 -1.5666780000  2.9774170000
H    1.8624200000 -0.4928440000  2.9330860000
N   -4.5374640000 -0.8761860000  0.5336580000
