48
candidate_id=P0_C005 system=P0 charge=0 multiplicity=1
C    3.3881560000  1.6859190000  1.9359690000
C    2.0457050000  1.4174620000  1.6725340000
C    1.6875430000  0.3224390000  0.8809500000
C    2.6926390000 -0.5037160000  0.3660740000
C    4.0311750000 -0.2550160000  0.6613350000
H    3.6522900000  2.5508790000  2.5385170000
H    1.2873410000  2.0729690000  2.0858630000
H    2.4428520000 -1.3465890000 -0.2727170000
H    4.7981720000 -0.9173520000  0.2691650000
P   -0.0803290000 -0.0136330000  0.4573750000
C    0.3944460000  0.0765920000 -1.4355160000
C    0.8599880000  1.2996870000 -1.9394230000
C    0.3989080000 -0.9907480000 -2.3331340000
C    1.2785490000  1.4014770000 -3.2575750000
H    0.9002580000  2.1859540000 -1.3093170000
C    0.8405190000 -0.7984240000 -3.6435470000
H    0.0725770000 -1.9853490000 -2.0457700000
H    1.6359960000  2.3520570000 -3.6473330000
H    0.8428800000 -1.6330950000 -4.3417940000
C   -1.3291260000  1.3427760000  0.2739290000
C   -2.1382150000  1.4191880000 -0.8669570000
C   -1.4883160000  2.3092880000  1.2744020000
C   -3.0905250000  2.4269090000 -0.9986670000
H   -2.0336850000  0.6941430000 -1.6680830000
C   -2.4135540000  3.3401340000  1.1248730000
H   -0.9011560000  2.2542180000  2.1837250000
C   -3.2227440000  3.3982140000 -0.0081100000
H   -3.7203770000  2.4559670000 -1.8834740000
H   -2.5087010000  4.0907490000  1.9047340000
H   -3.9542010000  4.1943770000 -0.1176050000
C    4.3837940000  0.8461080000  1.4400940000
H    5.4289480000  1.0499780000  1.6566920000
O   -0.3329880000 -0.0799670000  2.2267740000
C   -0.6861160000 -1.7515660000  0.3453190000
C   -1.9279930000 -2.0619300000 -0.2059410000
C    0.0768460000 -2.7993030000  0.8614630000
C   -2.3418580000 -3.3907730000 -0.2253320000
H   -2.5808000000 -1.2995060000 -0.6182620000
C   -0.4185400000 -4.0960760000  0.7775800000
H    1.0401630000 -2.6270030000  1.3313240000
H   -3.3111460000 -3.6496900000 -0.6445430000
H    0.1682150000 -4.9266840000  1.1622380000
N   -1.6079820000 -4.4044530000  0.2461140000
C   -1.5750960000 -0.4429440000  2.7929350000
H   -1.6212690000 -1.5250290000  2.9814400000
H   -1.6847470000  0.0822090000  3.7493290000
H   -2.4308400000 -0.1700950000  2.1591870000
N    1.2749770000  0.3711590000 -4.1186350000
