48
candidate_id=P0_C015 system=P0 charge=0 multiplicity=1
C   -4.1125740000 -0.8525850000 -0.4656940000
C   -2.8116960000 -0.6498620000 -0.9177670000
C   -1.7258610000 -0.9090580000 -0.0704990000
C   -1.9543140000 -1.4132660000  1.2130130000
C   -3.2566710000 -1.6257140000  1.6547530000
H   -4.9486420000 -0.6395610000 -1.1252640000
H   -2.6514850000 -0.3027900000 -1.9345170000
H   -1.1313840000 -1.6428470000  1.8785270000
H   -3.4249830000 -2.0171560000  2.6537510000
P   -0.0742950000 -0.6243760000 -0.7473850000
C    1.2888920000 -1.4691680000  0.1044460000
C    2.2129460000 -2.1379860000 -0.7116210000
C    1.4657900000 -1.4856860000  1.4939180000
C    3.2949220000 -2.8072650000 -0.1461590000
H    2.0969530000 -2.1340440000 -1.7905710000
C    2.5411760000 -2.1678910000  2.0537430000
H    0.7898360000 -0.9520920000  2.1503740000
H    4.0077370000 -3.3125170000 -0.7912750000
H    2.6650930000 -2.1740820000  3.1326970000
C    0.1597700000  1.3095370000  0.8206950000
C    1.3486620000  1.6792800000  1.4451410000
C   -1.0179690000  1.7976700000  1.3884130000
C    1.3168700000  2.4567950000  2.5984960000
H    2.3130350000  1.3738050000  1.0410910000
C   -0.9595470000  2.5751670000  2.5416950000
H   -1.9917930000  1.5906580000  0.9482890000
H    2.2425010000  2.7370970000  3.0983860000
H   -1.8748570000  2.9502330000  2.9964980000
C   -4.3366000000 -1.3352420000  0.8223360000
H   -5.3520910000 -1.4949000000  1.1739130000
O   -0.1440230000 -1.3897990000 -2.1884760000
C    0.3107470000  1.0439910000 -1.1885430000
C   -0.6662380000  1.9429550000 -1.7527870000
C    1.6670320000  1.3506870000 -1.5732400000
C   -0.2452580000  3.1543810000 -2.2501450000
H   -1.7280740000  1.7335620000 -1.6938270000
C    1.9512650000  2.5978930000 -2.0826920000
H    2.4756050000  0.6502600000 -1.3895300000
H   -0.9954430000  3.8674340000 -2.5898470000
H    2.9900060000  2.8545590000 -2.2878540000
C   -0.5938080000 -2.7476800000 -2.3223070000
H   -1.6814040000 -2.7646780000 -2.4343060000
H   -0.1218150000 -3.1432260000 -3.2233020000
H   -0.3030820000 -3.3570860000 -1.4608740000
N    0.1841070000  2.9053400000  3.1583320000
N    1.0409060000  3.5428690000 -2.3961280000
C    3.4583660000 -2.8274560000  1.2368460000
H    4.3003850000 -3.3530410000  1.6785470000
