48
candidate_id=P0_C003 system=P0 charge=0 multiplicity=1
C    0.9628120000 -1.3535860000 -2.7178520000
C    0.0720420000 -1.0957000000 -1.6752550000
C    0.3320060000 -1.5710500000 -0.3859250000
C    1.5073550000 -2.3018060000 -0.1577030000
C    2.3876160000 -2.5723380000 -1.2012240000
H    0.7477780000 -0.9748730000 -3.7137650000
H   -0.8260500000 -0.5192240000 -1.8777300000
H    1.7403730000 -2.6619620000  0.8420690000
H    3.2928210000 -3.1420130000 -1.0086670000
P   -0.7298870000 -1.1947500000  1.0635690000
C    2.1554030000  1.3903100000  0.3718670000
C    2.4430320000  0.8077490000  1.6101450000
C    3.0392660000  1.1269970000 -0.6779880000
C    3.5755630000  0.0129540000  1.7396110000
H    1.7896200000  0.9462370000  2.4654740000
C    4.1463730000  0.3183380000 -0.4465510000
H    2.8887350000  1.5536470000 -1.6647690000
H    3.8063500000 -0.4504270000  2.6958350000
H    4.8419780000  0.1083690000 -1.2553190000
C   -2.2914990000 -0.6588740000  0.2631810000
C   -2.6789780000  0.6760450000  0.4068550000
C   -3.1032100000 -1.5332210000 -0.4717960000
C   -3.8461650000  1.1438960000 -0.1986230000
H   -2.0658720000  1.3577790000  0.9930800000
C   -4.2767760000 -1.0722640000 -1.0614920000
H   -2.8133600000 -2.5750150000 -0.5863360000
C   -4.6459500000  0.2692700000 -0.9309320000
H   -4.1310480000  2.1870940000 -0.0907390000
H   -4.9025220000 -1.7560280000 -1.6292260000
H   -5.5594090000  0.6286860000 -1.3975450000
C    2.1185700000 -2.0952470000 -2.4849420000
H    2.8117660000 -2.2962310000 -3.2975110000
O   -1.0715970000 -2.7879830000  1.4658470000
C    0.9613840000  2.2526570000  0.1793500000
C    0.4573530000  3.0438100000  1.2167690000
C    0.2980780000  2.3163580000 -1.0497450000
C   -0.6514450000  3.8490710000  0.9801350000
H    0.9270100000  3.0624180000  2.1953410000
C   -0.8074380000  3.1485270000 -1.1838570000
H    0.6179760000  1.7184380000 -1.8965530000
H   -1.0458000000  4.4759370000  1.7762070000
H   -1.3365330000  3.1978670000 -2.1324110000
N   -1.2860450000  3.9149330000 -0.1966580000
C   -1.7417350000 -2.9778440000  2.7120770000
H   -1.7821970000 -4.0552280000  2.8880170000
H   -1.1955340000 -2.4958210000  3.5327450000
H   -2.7643970000 -2.5819960000  2.6739300000
N    4.4285380000 -0.2359130000  0.7382190000
