48
candidate_id=P0_C008 system=P0 charge=0 multiplicity=1
C   -1.3252890000  2.8971210000 -2.1721030000
C   -1.0793560000  1.6483640000 -1.6002730000
C   -0.3426190000  1.5795410000 -0.4083800000
C    0.0691930000  2.7839770000  0.1776330000
C   -0.2631500000  3.9901600000 -0.4430300000
H   -1.8675260000  2.9673500000 -3.1130620000
H   -1.4741960000  0.7591710000 -2.0823650000
H    0.6413020000  2.7984500000  1.1013380000
H    0.0303080000  4.9353090000  0.0099000000
P    0.0034680000 -0.0238820000  0.4944900000
C   -1.9021430000 -0.3875290000  0.4625580000
C   -2.7581760000  0.5627950000  1.0438010000
C   -2.4930890000 -1.5023610000 -0.1380980000
C   -4.1404520000  0.4091840000  1.0278440000
H   -2.3394610000  1.4480460000  1.5206920000
C   -3.8828670000 -1.6636600000 -0.1639890000
H   -1.8837610000 -2.2738260000 -0.5990980000
H   -4.7738830000  1.1638750000  1.4877700000
H   -4.3113000000 -2.5411740000 -0.6423290000
C    1.9006880000  0.4071380000  0.6238320000
C    2.5395690000  0.8694630000 -0.5384000000
C    2.7081990000  0.1649170000  1.7422880000
C    3.9141660000  1.0900120000 -0.5838010000
H    1.9613540000  1.0651010000 -1.4392290000
C    4.0883820000  0.3847550000  1.7070400000
H    2.2628430000 -0.2023320000  2.6602790000
H    4.3720420000  1.4515040000 -1.5014620000
H    4.6843590000  0.1897870000  2.5957110000
O    0.0517770000 -0.1887790000  2.1409770000
C    0.4532840000 -1.4869260000 -0.5441660000
C    0.5211370000 -1.4917130000 -1.9390520000
C    0.7827490000 -2.6682010000  0.1308100000
C    0.9059340000 -2.6628720000 -2.5888920000
H    0.2901770000 -0.6121420000 -2.5299410000
C    1.1497420000 -3.7888490000 -0.6095770000
H    0.7594680000 -2.7313940000  1.2155780000
H    0.9673430000 -2.6839630000 -3.6748170000
H    1.4030680000 -4.7167030000 -0.1013810000
C   -0.8327500000 -0.9158310000  2.9963030000
H   -0.2225480000 -1.2262430000  3.8490560000
H   -1.6474900000 -0.2759370000  3.3450910000
H   -1.2463140000 -1.8017090000  2.5087850000
N   -0.9369070000  4.0637100000 -1.6112210000
N    1.2150940000 -3.8044750000 -1.9512390000
C    4.6987050000  0.8492530000  0.5449980000
H    5.7716850000  1.0212150000  0.5161440000
C   -4.7117700000 -0.7099530000  0.4174080000
H   -5.7915090000 -0.8332780000  0.3968670000
