48
candidate_id=P0_C017 system=P0 charge=0 multiplicity=1
C   -3.7548870000  1.1990160000  1.1677110000
C   -2.4556090000  1.2416110000  0.6707060000
C   -1.9786970000  0.2049700000 -0.1403940000
C   -2.8368590000 -0.8493600000 -0.4823700000
C   -4.1344870000 -0.8864220000  0.0214160000
H   -4.1097750000  2.0072810000  1.8004730000
H   -1.8332290000  2.0929980000  0.9195870000
H   -2.5171290000 -1.6453750000 -1.1447200000
H   -4.7856080000 -1.7137670000 -0.2451360000
P   -0.3245150000  0.2871150000 -0.8696180000
C    0.6456330000 -1.1915950000 -0.8608980000
C    1.9839610000 -1.0653500000 -1.3943320000
C    0.1414600000 -2.5459580000 -0.9171280000
C    2.7649570000 -2.1919950000 -1.5329090000
H    2.4167390000 -0.0940330000 -1.6107400000
C    1.0273370000 -3.5815410000 -1.0883760000
H   -0.8943480000 -2.7754220000 -0.7030250000
H    3.8016300000 -2.0721390000 -1.8465860000
H    0.6478600000 -4.6012440000 -1.0356010000
C    0.6423300000 -0.7489060000  1.1144360000
C    1.9232570000 -0.4627020000  1.5840460000
C   -0.2777650000 -1.3101450000  2.0035450000
C    2.2736510000 -0.6817000000  2.9160200000
H    2.6729000000 -0.0644620000  0.8998720000
C    0.0605560000 -1.5357170000  3.3397830000
H   -1.2769940000 -1.5834370000  1.6694930000
H    3.2778700000 -0.4436200000  3.2600680000
H   -0.6749920000 -1.9616810000  4.0188230000
C   -4.5935220000  0.1312070000  0.8542340000
H   -5.6054900000  0.0988030000  1.2478400000
O   -0.6237120000  0.7385500000 -2.4199440000
C    0.6171210000  1.7922550000 -0.4278530000
C    0.6980000000  2.2961980000  0.8716800000
C    1.2801960000  2.4876680000 -1.4402750000
C    1.4223000000  3.4619960000  1.0936380000
H    0.2278520000  1.8016930000  1.7126440000
C    1.9976720000  3.6341400000 -1.1071580000
H    1.2550060000  2.1553580000 -2.4710010000
H    1.4879680000  3.8726660000  2.0975340000
H    2.5333810000  4.1785150000 -1.8802820000
C   -1.2814610000 -0.1348930000 -3.3463120000
H   -2.3604530000 -0.1383510000 -3.1630120000
H   -1.0828550000  0.2694040000 -4.3404000000
H   -0.8849800000 -1.1531600000 -3.2819090000
N    2.3490710000 -3.4608110000 -1.3540930000
C    1.3371420000 -1.2155470000  3.8031840000
H    1.6039540000 -1.3925730000  4.8420560000
N    2.0715580000  4.1271020000  0.1317330000
