48
candidate_id=P0_C007 system=P0 charge=0 multiplicity=1
C    1.2046050000  2.9377720000  2.1892340000
C    1.0280560000  1.7043570000  1.5669510000
C    0.2318940000  1.5960030000  0.4211580000
C   -0.3389980000  2.7515260000 -0.1193180000
C   -0.1262890000  3.9934200000  0.4774950000
H    1.8045360000  3.0021410000  3.0929650000
H    1.5284420000  0.8319500000  1.9773690000
H   -0.9527870000  2.6922220000 -1.0145650000
H   -0.5626380000  4.8847160000  0.0348690000
P   -0.0045840000 -0.0172090000 -0.4726680000
C    1.9311720000 -0.2730620000 -0.4716540000
C    2.7495700000  0.7375740000 -0.9950050000
C    2.5940000000 -1.3912400000  0.0348140000
C    4.1298610000  0.5950670000 -0.9888410000
H    2.3202150000  1.6473440000 -1.4093640000
C    3.9880520000 -1.4470790000  0.0069810000
H    2.0549460000 -2.2336430000  0.4568050000
H    4.7637710000  1.3793520000 -1.3969610000
H    4.5037840000 -2.3170230000  0.4087050000
C   -1.9344010000  0.3000560000 -0.6078770000
C   -2.7194070000  0.1842210000 -1.7572030000
C   -2.6304960000  0.5880860000  0.5745370000
C   -4.1014780000  0.3581130000 -1.6800600000
H   -2.2748850000 -0.0389530000 -2.7201270000
C   -4.0098400000  0.7420530000  0.5601020000
H   -2.1087930000  0.6982150000  1.5224960000
H   -4.7093690000  0.2710260000 -2.5786880000
H   -4.5448960000  0.9654050000  1.4807520000
C    0.6329040000  4.0867500000  1.6422210000
H    0.7857290000  5.0514680000  2.1185850000
O   -0.0542000000 -0.1883370000 -2.1168790000
C   -0.3482000000 -1.5149980000  0.5416850000
C   -0.2997170000 -1.5434630000  1.9373040000
C   -0.6866990000 -2.6783680000 -0.1578540000
C   -0.5848790000 -2.7231310000  2.6235840000
H   -0.0489830000 -0.6516570000  2.5031690000
C   -0.9610600000 -3.8585660000  0.5303370000
H   -0.7411200000 -2.6708770000 -1.2442690000
H   -0.5502550000 -2.7321550000  3.7097720000
H   -1.2175240000 -4.7571080000 -0.0244640000
C    0.8747300000 -0.8434370000 -2.9836960000
H    0.2966190000 -1.1154860000 -3.8707880000
H    1.6861970000 -0.1703070000 -3.2717660000
H    1.2885950000 -1.7496690000 -2.5345110000
C   -0.9104230000 -3.8839350000  1.9234750000
H   -1.1276210000 -4.8028780000  2.4612290000
N   -4.7576410000  0.6330190000 -0.5485780000
N    4.7620220000 -0.4795270000 -0.4923330000
