50
seed_id=P2_SEED_01 system=P2 charge=2 multiplicity=1 geometry_status=rdkit_etkdg_unoptimized random_seed=20260726 conformer_id=0
C   0.0662097556 -2.6200920616 -1.2289023986
O  -0.3284924998 -1.7305302334 -0.3262114736
P  -0.0507870035 -0.2365782723 -0.0678865186
C  -1.0095762242  0.1622144687  1.4293261328
C  -1.6874251295 -0.8360489662  2.1124941507
C  -2.4237950277 -0.5502940962  3.2508094748
C  -2.4960676895  0.7437891592  3.7285805275
C  -1.8361488424  1.7355018046  3.0691918878
C  -1.1092377284  1.4288083455  1.9383581221
C   0.6956242472  1.3671127001 -0.3343577086
C   0.0963100692  2.2421277817 -1.1684933885
C   0.6661561161  3.4727685908 -1.3710140045
C   1.8339268561  3.8312438804 -0.7413618709
C   2.4009125367  2.9092130724  0.0936235622
C   1.8388457140  1.6778551528  0.3016548985
C  -1.1343239964 -0.3101525145 -1.3670902122
C  -0.7612222014 -0.2569851290 -2.6932837690
C  -1.6633465698 -0.2141116530 -3.7664026031
N  -2.9595305656 -0.2268008468 -3.4673092130
C  -3.3712796161 -0.2783031722 -2.2045887788
C  -2.4923516562 -0.3201460217 -1.1638883523
C   1.3405826619 -1.0822461451  0.4308080977
C   2.4595342211 -1.2635871970 -0.3609651371
C   3.6434391431 -1.8691409028  0.0888557386
N   3.6629685752 -2.2824535835  1.3494706299
C   2.6145606739 -2.1304367225  2.1435734410
C   1.4618844982 -1.5450159040  1.7177305147
H   0.7031675060 -2.3582402188 -2.0586633353
H   0.6238167006 -3.4459439538 -0.6824283084
H  -0.8393499016 -3.1745048958 -1.6263463768
H  -1.6357781805 -1.8549633825  1.7438513052
H  -2.9639332365 -1.3130727994  3.8046349270
H  -3.0584166947  1.0180571576  4.6141157204
H  -1.8397262227  2.7723375672  3.3740971582
H  -0.5815211478  2.2042504479  1.4044805161
H  -0.8410632921  1.9702964710 -1.6770850427
H   0.2066260100  4.1878217972 -2.0321821503
H   2.3107391544  4.8131456168 -0.8877301459
H   3.3368061625  3.1994913259  0.5969656319
H   2.3285321045  0.9823063868  0.9741447738
H   0.2944617009 -0.2357904611 -2.9934149971
H  -1.2799380266 -0.1729461354 -4.7823238276
H  -3.6447467001 -0.1951753950 -4.2746800982
H  -4.4370157337 -0.2864019814 -2.0245788786
H  -2.9317311787 -0.3622338458 -0.1551686633
H   2.4562656185 -0.9182310428 -1.4056511053
H   4.4493210873 -1.9574728921 -0.6112891655
H   4.5327160660 -2.7327955822  1.6974922445
H   2.6973000382 -2.4901079666  3.1603156302
H   0.6560978482 -1.4675377519  2.4487224382
