50
seed_id=P2_SEED_03 system=P2 geometry_status=unoptimized charge_and_multiplicity_in_molecular_systems_json
C  -2.2371238829 -1.5363923933  0.5990505116
O  -1.8322150339 -0.3368424723  0.3409176580
P  -0.2766286588 -0.0203917657  0.0695207190
C  -1.1668875272 -0.0994539692 -1.4257422704
C  -0.9708317291 -1.2607465479 -2.1479943583
C  -1.5282713672 -1.3958738948 -3.4085024231
C  -2.2844015204 -0.3915112353 -3.9716064367
C  -2.5134409376  0.7780688933 -3.3058056480
C  -1.9356364147  0.8801319336 -2.0351715765
C   1.1059362125 -1.1842415348  0.0507065990
C   0.8816674770 -2.5384226381  0.2109354138
C   1.9319836225 -3.4477409709  0.2119887903
C   3.2047111978 -2.9672779826  0.0495559031
C   3.4031114332 -1.6271766526 -0.1067225582
C   2.3513061167 -0.7459226756 -0.1049375403
C  -0.7099388503  0.2954338081  1.7143359709
C  -0.2803903096 -0.6736955046  2.6393855634
C  -0.4707598018 -0.4804005786  3.9903075708
N  -1.0592199646  0.6155099534  4.4428125052
C  -1.4982965399  1.5823997958  3.6571065848
C  -1.3092393489  1.3918282143  2.2981957837
C   0.6169572368  1.3637615801 -0.3877828852
C   1.1047363149  2.2455910778  0.5844251567
C   1.8238871674  3.3676190854  0.2727595604
N   2.0893843515  3.6629036838 -1.0005656779
C   1.6579366197  2.8680583872 -1.9907108136
C   0.9260611055  1.7259904213 -1.6786823592
H  -2.2328046475 -2.2104262577 -0.3089295946
H  -1.9414776495 -2.0819429119  1.5156577939
H  -3.3778796421 -1.4701305169  0.7675581483
H  -0.4004789999 -2.1243715030 -1.8369208723
H  -1.3957369253 -2.2972676126 -4.0098334323
H  -2.7126289436 -0.5295110761 -4.9701058141
H  -3.0922741248  1.5651787463 -3.7193616932
H  -2.0683330496  1.7786952708 -1.4336651928
H  -0.0858940990 -2.9671429889  0.3467082677
H   1.7430982576 -4.5225360275  0.3399119613
H   4.0425742629 -3.6743665783  0.0485627364
H   4.4023853260 -1.2496534949 -0.2338381162
H   2.6477821326  0.3095941977 -0.2392306129
H   0.2079435067 -1.5845153821  2.3682512973
H  -0.1450382159 -1.2178773995  4.7136161933
H  -1.2007263984  0.7543299823  5.4845674040
H  -1.9763394713  2.4707865139  4.0386173195
H  -1.6523267654  2.1583434537  1.5920539034
H   0.9211933820  2.0463874647  1.6214802434
H   2.1830145303  4.0266614783  1.0785404153
H   2.6343081736  4.5186500938 -1.2312484395
H   1.8842074812  3.1262905425 -3.0033469830
H   0.5910349108  1.1036179874 -2.4968246765
