No scheduler so we must be running locally on lfy-54-cpu--c9ead987dbc8-u3f46qxwe6
Input file supplied : -v
----- GAMESS execution script 'rungms' -----
This job is running on host lfy-54-cpu--c9ead987dbc8-u3f46qxwe6
under operating system Linux at Tue Jul 28 20:17:19 UTC 2026 with sockets communication mode
Available scratch disk space (Kbyte units) at beginning of the job is
Filesystem       1K-blocks       Used  Available Use% Mounted on
gpfs_hdd       10737418240 8224686080 2512732160  77% /inspire/hdd/global_user/lifangyuan-253108110077
GAMESS temporary binary files will be written to /inspire/hdd/global_user/lifangyuan-253108110077/lifangyuan/benchmark/ResearchChemBench/.software_cache/gamess/2024-r2-p1/scratch
GAMESS supplementary output files will be written to /inspire/hdd/global_user/lifangyuan-253108110077/lifangyuan/benchmark/ResearchChemBench/.software_cache/gamess/2024-r2-p1/restart
Copying input file .inp to your run's scratch directory...
