Clean slab extracted from NHC4_published_adsorbed_start.vasp
1.0
  7.749290000000  0.000000000000  0.000000000000
  0.000000000000  8.948110000000  0.000000000000
  0.000000000000  0.000000000000  20.000000000000
  Cu  Pd
  35  1
Direct
  0.166670000000  0.750000000000  0.000000000000
  0.500000000000  0.750000000000  0.000000000000
  0.333330000000  0.500000000000  0.000000000000
  0.166670000000  0.250000000000  0.000000000000
  0.000000000000  0.000000000000  0.000000000000
  0.000000000000  0.500000000000  0.000000000000
  0.833330000000  0.750000000000  0.000000000000
  0.500000000000  0.250000000000  0.000000000000
  0.833330000000  0.250000000000  0.000000000000
  0.666670000000  0.000000000000  0.000000000000
  0.666670000000  0.500000000000  0.000000000000
  0.333330000000  0.000000000000  0.000000000000
  0.333330000000  0.833330000000  0.105460000000
  0.166670000000  0.583330000000  0.105460000000
  0.000000000000  0.333330000000  0.105460000000
  0.000000000000  0.833330000000  0.105460000000
  0.500000000000  0.583330000000  0.105460000000
  0.833330000000  0.583330000000  0.105460000000
  0.666670000000  0.333330000000  0.105460000000
  0.666670000000  0.833330000000  0.105460000000
  0.166670000000  0.083330000000  0.105460000000
  0.500000000000  0.083330000000  0.105460000000
  0.333330000000  0.333330000000  0.105460000000
  0.833330000000  0.083330000000  0.105460000000
  0.168342399520  0.916919337737  0.210113468982
  0.002364107822  0.667705775360  0.210584716672
  0.499448703217  0.913125809620  0.209971773014
  0.837386835040  0.912003786558  0.209481530629
  0.667755579769  0.667428518674  0.210691318399
  0.168424503000  0.418183824945  0.210085432332
  0.497904842738  0.422521464333  0.208991010701
  0.331592751484  0.167563453281  0.210270577762
  0.333809390515  0.667725323960  0.210550948961
  0.007546257294  0.167498085952  0.210313046393
  0.838609434782  0.423184121987  0.209311237910
  0.671168883435  0.168699871128  0.220166301526
