<?xml version="1.0" encoding="ISO-8859-1"?>
<modeling>
 <generator>
  <i name="program" type="string">vasp </i>
  <i name="version" type="string">6.3.2  </i>
  <i name="subversion" type="string">27Jun22 (build Jul 19 2026 07:54:09) complex                          parallel </i>
  <i name="platform" type="string">LinuxGNU </i>
  <i name="date" type="string">2026 07 28 </i>
  <i name="time" type="string">18:40:26 </i>
 </generator>
 <incar>
  <i type="string" name="SYSTEM">silicon smoke</i>
  <i type="int" name="IBRION">    -1</i>
  <i name="EDIFF">      0.00001000</i>
  <i type="int" name="NSW">     0</i>
  <i type="int" name="ISYM">    -1</i>
  <i name="ENCUT">    300.00000000</i>
  <i type="int" name="ISMEAR">     0</i>
  <i name="SIGMA">      0.05000000</i>
  <i type="logical" name="LWAVE"> T  </i>
  <i type="logical" name="LCHARG"> T  </i>
 </incar>
 <primitive_cell>
  <structure name="primitive_cell" >
   <crystal>
    <varray name="basis" >
     <v>       0.00000000       2.71500000       2.71500000 </v>
     <v>       2.71500000       0.00000000       2.71500000 </v>
     <v>       2.71500000       2.71500000       0.00000000 </v>
    </varray>
    <i name="volume">     40.02575175 </i>
    <varray name="rec_basis" >
     <v>      -0.18416206       0.18416206       0.18416206 </v>
     <v>       0.18416206      -0.18416206       0.18416206 </v>
     <v>       0.18416206       0.18416206      -0.18416206 </v>
    </varray>
   </crystal>
   <varray name="positions" >
    <v>       0.00000000       0.00000000       0.00000000 </v>
    <v>       0.25000000       0.25000000       0.25000000 </v>
   </varray>
  </structure>
  <varray name="primitive_index" >
   <v type="int" >        1 </v>
   <v type="int" >        2 </v>
  </varray>
 </primitive_cell>
 <kpoints>
  <generation param="Gamma">
   <v type="int" name="divisions">       1        1        1 </v>
   <v name="usershift">      0.00000000       0.00000000       0.00000000 </v>
   <v name="genvec1">      1.00000000       0.00000000      -0.00000000 </v>
   <v name="genvec2">      0.00000000       1.00000000       0.00000000 </v>
   <v name="genvec3">     -0.00000000      -0.00000000       1.00000000 </v>
   <v name="shift">      0.00000000       0.00000000       0.00000000 </v>
  </generation>
  <varray name="kpointlist" >
   <v>       0.00000000       0.00000000       0.00000000 </v>
  </varray>
  <varray name="weights" >
   <v>       1.00000000 </v>
  </varray>
 </kpoints>
 <parameters>
  <separator name="general" >
   <i type="string" name="SYSTEM">silicon smoke</i>
   <i type="logical" name="LCOMPAT"> F  </i>
  </separator>
  <separator name="electronic" >
   <i type="string" name="PREC">normal</i>
   <i name="ENMAX">    300.00000000</i>
   <i name="ENAUG">    322.06900000</i>
   <i name="EDIFF">      0.00001000</i>
   <i type="int" name="IALGO">    38</i>
   <i type="int" name="IWAVPR">    10</i>
   <i type="int" name="NBANDS">     8</i>
   <i type="int" name="NBANDSLOW">    -1</i>
   <i type="int" name="NBANDSHIGH">    -1</i>
   <i name="NELECT">      8.00000000</i>
   <i type="int" name="TURBO">     0</i>
   <i type="int" name="IRESTART">     0</i>
   <i type="int" name="NREBOOT">     0</i>
   <i type="int" name="NMIN">     0</i>
   <i name="EREF">      0.00000000</i>
   <separator name="electronic smearing" >
    <i type="int" name="ISMEAR">     0</i>
    <i name="SIGMA">      0.05000000</i>
    <i name="KSPACING">      0.50000000</i>
    <i type="logical" name="KGAMMA"> T  </i>
    <i type="logical" name="KBLOWUP"> F  </i>
   </separator>
   <separator name="electronic projectors" >
    <i type="logical" name="LREAL"> F  </i>
    <v name="ROPT">      0.00000000</v>
    <i type="int" name="LMAXPAW">  -100</i>
    <i type="int" name="LMAXMIX">     2</i>
    <i type="logical" name="NLSPLINE"> F  </i>
   </separator>
   <separator name="electronic startup" >
    <i type="int" name="ISTART">     0</i>
    <i type="int" name="ICHARG">     2</i>
    <i type="int" name="INIWAV">     1</i>
   </separator>
   <separator name="electronic spin" >
    <i type="int" name="ISPIN">     1</i>
    <i type="logical" name="LNONCOLLINEAR"> F  </i>
    <v name="MAGMOM">      1.00000000      1.00000000</v>
    <i name="NUPDOWN">     -1.00000000</i>
    <i type="logical" name="LSORBIT"> F  </i>
    <v name="SAXIS">      0.00000000      0.00000000      1.00000000</v>
    <i type="logical" name="LSPIRAL"> F  </i>
    <v name="QSPIRAL">      0.00000000      0.00000000      0.00000000</v>
    <i type="logical" name="LZEROZ"> F  </i>
   </separator>
   <separator name="electronic exchange-correlation" >
    <i type="logical" name="LASPH"> F  </i>
    <i type="logical" name="LMETAGGA"> F  </i>
   </separator>
   <separator name="electronic convergence" >
    <i type="int" name="NELM">    60</i>
    <i type="int" name="NELMDL">    -5</i>
    <i type="int" name="NELMIN">     2</i>
    <i name="ENINI">    300.00000000</i>
    <separator name="electronic convergence detail" >
     <i type="logical" name="LDIAG"> T  </i>
     <i type="logical" name="LSUBROT"> F  </i>
     <i name="WEIMIN">      0.00000000</i>
     <i name="EBREAK">      0.00000031</i>
     <i name="DEPER">      0.30000000</i>
     <i type="int" name="NRMM">     4</i>
     <i name="TIME">      0.40000000</i>
    </separator>
   </separator>
   <separator name="electronic mixer" >
    <i name="AMIX">      0.40000000</i>
    <i name="BMIX">      1.00000000</i>
    <i name="AMIN">      0.10000000</i>
    <i name="AMIX_MAG">      1.60000000</i>
    <i name="BMIX_MAG">      1.00000000</i>
    <separator name="electronic mixer details" >
     <i type="int" name="IMIX">     4</i>
     <i type="logical" name="MIXFIRST"> F  </i>
     <i type="int" name="MAXMIX">   -45</i>
     <i name="WC">    100.00000000</i>
     <i type="int" name="INIMIX">     1</i>
     <i type="int" name="MIXPRE">     1</i>
     <i type="int" name="MREMOVE">     5</i>
    </separator>
   </separator>
   <separator name="electronic dipolcorrection" >
    <i type="logical" name="LDIPOL"> F  </i>
    <i type="logical" name="LMONO"> F  </i>
    <i type="int" name="IDIPOL">     0</i>
    <i name="EPSILON">      1.00000000</i>
    <v name="DIPOL">   -100.00000000   -100.00000000   -100.00000000</v>
    <i name="EFIELD">      0.00000000</i>
   </separator>
  </separator>
  <separator name="grids" >
   <i type="int" name="NGX">    16</i>
   <i type="int" name="NGY">    16</i>
   <i type="int" name="NGZ">    16</i>
   <i type="int" name="NGXF">    32</i>
   <i type="int" name="NGYF">    32</i>
   <i type="int" name="NGZF">    32</i>
   <i type="logical" name="ADDGRID"> F  </i>
  </separator>
  <separator name="ionic" >
   <i type="int" name="NSW">     0</i>
   <i type="int" name="IBRION">    -1</i>
   <i type="int" name="MDALGO">     0</i>
   <i type="int" name="ISIF">     2</i>
   <i name="PSTRESS">      0.00000000</i>
   <i name="EDIFFG">      0.00010000</i>
   <i type="int" name="NFREE">     0</i>
   <i name="POTIM">      0.50000000</i>
   <i name="SMASS">     -3.00000000</i>
   <i name="SCALEE">      1.00000000</i>
  </separator>
  <separator name="ionic md" >
   <i name="TEBEG">      0.00010000</i>
   <i name="TEEND">      0.00010000</i>
   <i type="int" name="NBLOCK">     1</i>
   <i type="int" name="KBLOCK">     1</i>
   <i type="int" name="NPACO">   256</i>
   <i name="APACO">     10.00000000</i>
  </separator>
  <separator name="symmetry" >
   <i type="int" name="ISYM">    -1</i>
   <i name="SYMPREC">      0.00001000</i>
  </separator>
  <separator name="dos" >
   <i type="int" name="LORBIT">     0</i>
   <v name="RWIGS">     -1.00000000</v>
   <i type="int" name="NEDOS">   301</i>
   <i name="EMIN">     10.00000000</i>
   <i name="EMAX">    -10.00000000</i>
   <i name="EFERMI">      0.00000000</i>
  </separator>
  <separator name="writing" >
   <i type="int" name="NWRITE">     2</i>
   <i type="logical" name="LWAVE"> T  </i>
   <i type="logical" name="LDOWNSAMPLE"> F  </i>
   <i type="logical" name="LCHARG"> T  </i>
   <i type="logical" name="LPARD"> F  </i>
   <i type="logical" name="LVTOT"> F  </i>
   <i type="logical" name="LVHAR"> F  </i>
   <i type="logical" name="LELF"> F  </i>
   <i type="logical" name="LOPTICS"> F  </i>
   <v name="STM">      0.00000000      0.00000000      0.00000000      0.00000000      0.00000000      0.00000000      0.00000000</v>
  </separator>
  <separator name="performance" >
   <i type="int" name="NPAR">     1</i>
   <i type="int" name="NSIM">     4</i>
   <i type="int" name="NBLK">    -1</i>
   <i type="logical" name="LPLANE"> T  </i>
   <i type="logical" name="LSCALAPACK"> T  </i>
   <i type="logical" name="LSCAAWARE"> F  </i>
   <i type="logical" name="LSCALU"> F  </i>
   <i type="logical" name="LASYNC"> F  </i>
   <i type="logical" name="LORBITALREAL"> F  </i>
  </separator>
  <separator name="miscellaneous" >
   <i type="int" name="IDIOT">     3</i>
   <i type="int" name="PHON_NSTRUCT">    -1</i>
   <i type="logical" name="LMUSIC"> F  </i>
   <v name="POMASS">     28.08500000</v>
   <v name="DARWINR">      0.00000000</v>
   <v name="DARWINV">      1.00000000</v>
   <i type="logical" name="LCORR"> T  </i>
  </separator>
  <i type="logical" name="GGA_COMPAT"> T  </i>
  <i type="logical" name="LBERRY"> F  </i>
  <i type="int" name="ICORELEVEL">     0</i>
  <i type="logical" name="LDAU"> F  </i>
  <i type="int" name="I_CONSTRAINED_M">     0</i>
  <separator name="electronic exchange-correlation" >
   <i type="string" name="GGA">--</i>
   <i type="int" name="VOSKOWN">     0</i>
   <i type="logical" name="LHFCALC"> F  </i>
   <i type="string" name="PRECFOCK"></i>
   <i type="logical" name="LSYMGRAD"> F  </i>
   <i type="logical" name="LHFONE"> F  </i>
   <i type="logical" name="LRHFCALC"> F  </i>
   <i type="logical" name="LTHOMAS"> F  </i>
   <i type="logical" name="LMODELHF"> F  </i>
   <i type="logical" name="LFOCKACE"> F  </i>
   <i name="ENCUT4O">     -1.00000000</i>
   <i type="int" name="EXXOEP">     0</i>
   <i type="int" name="FOURORBIT">     0</i>
   <i name="AEXX">      0.00000000</i>
   <i name="HFALPHA">      0.00000000</i>
   <i name="MCALPHA">      0.00000000</i>
   <i name="ALDAX">      1.00000000</i>
   <i name="AGGAX">      1.00000000</i>
   <i name="ALDAC">      1.00000000</i>
   <i name="AGGAC">      1.00000000</i>
   <i type="int" name="NKREDX">     1</i>
   <i type="int" name="NKREDY">     1</i>
   <i type="int" name="NKREDZ">     1</i>
   <i type="logical" name="SHIFTRED"> F  </i>
   <i type="logical" name="ODDONLY"> F  </i>
   <i type="logical" name="EVENONLY"> F  </i>
   <i type="int" name="LMAXFOCK">     0</i>
   <i type="int" name="NMAXFOCKAE">     0</i>
   <i type="logical" name="LFOCKAEDFT"> F  </i>
   <i name="HFSCREEN">      0.00000000</i>
   <i name="HFSCREENC">      0.00000000</i>
   <i type="int" name="NBANDSGWLOW">     0</i>
  </separator>
  <separator name="vdW DFT" >
   <i type="logical" name="LUSE_VDW"> F  </i>
   <i name="Zab_VDW">     -0.84910000</i>
   <i name="PARAM1">      0.12340000</i>
   <i name="PARAM2">      1.00000000</i>
   <i name="PARAM3">      0.00000000</i>
  </separator>
  <separator name="model GW" >
   <i type="int" name="MODEL_GW">     0</i>
   <i name="MODEL_EPS0">     12.00772552</i>
   <i name="MODEL_ALPHA">      1.00000000</i>
  </separator>
  <separator name="linear response parameters" >
   <i type="logical" name="LEPSILON"> F  </i>
   <i type="logical" name="LRPA"> F  </i>
   <i type="logical" name="LNABLA"> F  </i>
   <i type="logical" name="LVEL"> F  </i>
   <i name="CSHIFT">      0.10000000</i>
   <i name="OMEGAMAX">     -1.00000000</i>
   <i name="DEG_THRESHOLD">      0.00200000</i>
   <i name="RTIME">     -0.10000000</i>
   <i name="WPLASMAI">      0.00000000</i>
   <v name="DFIELD">      0.00000000      0.00000000      0.00000000</v>
   <v name="WPLASMA">      0.00000000      0.00000000      0.00000000      0.00000000      0.00000000      0.00000000      0.00000000      0.00000000      0.00000000</v>
  </separator>
  <separator name="orbital magnetization" >
   <i type="logical" name="NUCIND"> F  </i>
   <v name="MAGPOS">      0.00000000      0.00000000      0.00000000</v>
   <i type="logical" name="LNICSALL"> T  </i>
   <i type="logical" name="ORBITALMAG"> F  </i>
   <i type="logical" name="LMAGBLOCH"> F  </i>
   <i type="logical" name="LCHIMAG"> F  </i>
   <i type="logical" name="LGAUGE"> T  </i>
   <i type="int" name="MAGATOM">     0</i>
   <v name="MAGDIPOL">      0.00000000      0.00000000      0.00000000</v>
   <v name="AVECCONST">      0.00000000      0.00000000      0.00000000</v>
  </separator>
  <separator name="response functions" >
   <i type="logical" name="LFINITE_TEMPERATURE"> F  </i>
   <i type="logical" name="LADDER"> F  </i>
   <i type="logical" name="LRPAFORCE"> F  </i>
   <i type="logical" name="LFXC"> F  </i>
   <i type="logical" name="LHARTREE"> T  </i>
   <i type="int" name="IBSE">     0</i>
   <v type="int" name="KPOINT">    -1     0     0     0</v>
   <i type="logical" name="LTCTC"> F  </i>
   <i type="logical" name="LTCTE"> F  </i>
   <i type="logical" name="LTETE"> F  </i>
   <i type="logical" name="LTRIPLET"> F  </i>
   <i type="logical" name="LFXCEPS"> F  </i>
   <i type="logical" name="LFXHEG"> F  </i>
   <i type="int" name="NATURALO">     2</i>
   <i type="logical" name="LHOLEGF"> F  </i>
   <i type="logical" name="L2ORDER"> F  </i>
   <i type="logical" name="LDMP1"> F  </i>
   <i type="logical" name="LMP2LT"> F  </i>
   <i type="logical" name="LSMP2LT"> F  </i>
   <i type="logical" name="LGWLF"> F  </i>
   <i name="ENCUTGW">     -2.00000000</i>
   <i name="ENCUTGWSOFT">     -2.00000000</i>
   <i name="ENCUTLF">     -1.00000000</i>
   <i type="logical" name="LESF_SPLINES"> F  </i>
   <i type="int" name="LMAXMP2">    -1</i>
   <i name="SCISSOR">      0.00000000</i>
   <i type="int" name="NOMEGA">     0</i>
   <i type="int" name="NOMEGAR">     0</i>
   <i type="int" name="NBANDSGW">    -1</i>
   <i type="int" name="NBANDSO">    -1</i>
   <i type="int" name="NBANDSV">    -1</i>
   <i type="int" name="NELMGW">     1</i>
   <i type="int" name="NELMHF">     1</i>
   <i type="int" name="DIM">     3</i>
   <i type="int" name="IESPILON">     4</i>
   <i type="int" name="ANTIRES">     0</i>
   <i name="OMEGAMAX">    -30.00000000</i>
   <i name="OMEGAMIN">    -30.00000000</i>
   <i name="OMEGATL">   -200.00000000</i>
   <i type="int" name="OMEGAGRID">     0</i>
   <i name="CSHIFT">     -0.10000000</i>
   <i type="logical" name="LSELFENERGY"> F  </i>
   <i type="logical" name="LSPECTRAL"> F  </i>
   <i type="logical" name="LSPECTRALGW"> F  </i>
   <i type="logical" name="LSINGLES"> F  </i>
   <i type="logical" name="LFERMIGW"> F  </i>
   <i type="logical" name="ODDONLYGW"> F  </i>
   <i type="logical" name="EVENONLYGW"> F  </i>
   <i type="int" name="NKREDLFX">     1</i>
   <i type="int" name="NKREDLFY">     1</i>
   <i type="int" name="NKREDLFZ">     1</i>
   <i type="int" name="MAXMEM">  2800</i>
   <i type="int" name="TELESCOPE">     0</i>
   <i type="int" name="NTAUPAR">    -1</i>
   <i type="int" name="NOMEGAPAR">    -1</i>
   <i name="DAMP_NEWTON">      0.80000001</i>
   <i name="LAMBDA">      1.00000000</i>
  </separator>
  <separator name="External order field" >
   <i name="OFIELD_KAPPA">      0.00000000</i>
   <v name="OFIELD_K">      0.00000000      0.00000000      0.00000000</v>
   <i name="OFIELD_Q6_NEAR">      0.00000000</i>
   <i name="OFIELD_Q6_FAR">      0.00000000</i>
   <i name="OFIELD_A">      0.00000000</i>
  </separator>
  <separator name="optional k-points parameters" >
   <i type="int" name="KPOINTS_OPT_MODE">     1</i>
   <i type="logical" name="LKPOINTS_OPT"> F  </i>
  </separator>
 </parameters>
 <atominfo>
  <atoms>       2 </atoms>
  <types>       1 </types>
  <array name="atoms" >
   <dimension dim="1">ion</dimension>
   <field type="string">element</field>
   <field type="int">atomtype</field>
   <set>
    <rc><c>Si</c><c>   1</c></rc>
    <rc><c>Si</c><c>   1</c></rc>
   </set>
  </array>
  <array name="atomtypes" >
   <dimension dim="1">type</dimension>
   <field type="int">atomspertype</field>
   <field type="string">element</field>
   <field>mass</field>
   <field>valence</field>
   <field type="string">pseudopotential</field>
   <set>
    <rc><c>   2</c><c>Si</c><c>     28.08500000</c><c>      4.00000000</c><c> PAW Si 02Apr1999                       </c></rc>
   </set>
  </array>
 </atominfo>
 <structure name="initialpos" >
  <crystal>
   <varray name="basis" >
    <v>       0.00000000       2.71500000       2.71500000 </v>
    <v>       2.71500000       0.00000000       2.71500000 </v>
    <v>       2.71500000       2.71500000       0.00000000 </v>
   </varray>
   <i name="volume">     40.02575175 </i>
   <varray name="rec_basis" >
    <v>      -0.18416206       0.18416206       0.18416206 </v>
    <v>       0.18416206      -0.18416206       0.18416206 </v>
    <v>       0.18416206       0.18416206      -0.18416206 </v>
   </varray>
  </crystal>
  <varray name="positions" >
   <v>       0.00000000       0.00000000       0.00000000 </v>
   <v>       0.25000000       0.25000000       0.25000000 </v>
  </varray>
 </structure>
 <calculation>
  <scstep>
   <time name="dav">    0.01    0.01</time>
   <time name="total">    0.01    0.01</time>
   <energy>
    <i name="alphaZ">      2.36902180 </i>
    <i name="ewald">   -228.56352493 </i>
    <i name="hartreedc">    -11.08086016 </i>
    <i name="XCdc">    -18.61208514 </i>
    <i name="pawpsdc">     67.11795164 </i>
    <i name="pawaedc">    -32.28261218 </i>
    <i name="eentropy">     -0.00000000 </i>
    <i name="bandstr">     37.16806676 </i>
    <i name="atom">    206.86363639 </i>
    <i name="e_fr_energy">     22.97959418 </i>
    <i name="e_wo_entrp">     22.97959418 </i>
    <i name="e_0_energy">     22.97959418 </i>
   </energy>
  </scstep>
  <scstep>
   <time name="dav">    0.01    0.01</time>
   <time name="total">    0.01    0.01</time>
   <energy>
    <i name="e_fr_energy">      3.99960703 </i>
    <i name="e_wo_entrp">      3.99960703 </i>
    <i name="e_0_energy">      3.99960703 </i>
   </energy>
  </scstep>
  <scstep>
   <time name="dav">    0.00    0.00</time>
   <time name="total">    0.00    0.00</time>
   <energy>
    <i name="e_fr_energy">      3.77317549 </i>
    <i name="e_wo_entrp">      3.77317549 </i>
    <i name="e_0_energy">      3.77317549 </i>
   </energy>
  </scstep>
  <scstep>
   <time name="dav">    0.01    0.01</time>
   <time name="total">    0.01    0.01</time>
   <energy>
    <i name="e_fr_energy">      3.77200500 </i>
    <i name="e_wo_entrp">      3.77200500 </i>
    <i name="e_0_energy">      3.77200500 </i>
   </energy>
  </scstep>
  <scstep>
   <time name="dav">    0.00    0.00</time>
   <time name="total">    0.01    0.01</time>
   <energy>
    <i name="e_fr_energy">      3.77200423 </i>
    <i name="e_wo_entrp">      3.77200423 </i>
    <i name="e_0_energy">      3.77200423 </i>
   </energy>
  </scstep>
  <scstep>
   <time name="dav">    0.00    0.00</time>
   <time name="total">    0.01    0.01</time>
   <energy>
    <i name="e_fr_energy">      4.82677176 </i>
    <i name="e_wo_entrp">      4.82677176 </i>
    <i name="e_0_energy">      4.82677176 </i>
   </energy>
  </scstep>
  <scstep>
   <time name="dav">    0.00    0.00</time>
   <time name="total">    0.01    0.01</time>
   <energy>
    <i name="e_fr_energy">      5.38861538 </i>
    <i name="e_wo_entrp">      5.38861538 </i>
    <i name="e_0_energy">      5.38861538 </i>
   </energy>
  </scstep>
  <scstep>
   <time name="dav">    0.00    0.00</time>
   <time name="total">    0.01    0.01</time>
   <energy>
    <i name="e_fr_energy">      5.38484367 </i>
    <i name="e_wo_entrp">      5.38484367 </i>
    <i name="e_0_energy">      5.38484367 </i>
   </energy>
  </scstep>
  <scstep>
   <time name="dav">    0.00    0.00</time>
   <time name="total">    0.01    0.01</time>
   <energy>
    <i name="e_fr_energy">      5.38572269 </i>
    <i name="e_wo_entrp">      5.38572269 </i>
    <i name="e_0_energy">      5.38572269 </i>
   </energy>
  </scstep>
  <scstep>
   <time name="dav">    0.00    0.00</time>
   <time name="total">    0.01    0.01</time>
   <energy>
    <i name="e_fr_energy">      5.38570940 </i>
    <i name="e_wo_entrp">      5.38570940 </i>
    <i name="e_0_energy">      5.38570940 </i>
   </energy>
  </scstep>
  <scstep>
   <time name="dav">    0.00    0.00</time>
   <time name="total">    0.01    0.01</time>
   <energy>
    <i name="alphaZ">      2.36902180 </i>
    <i name="ewald">   -228.56352493 </i>
    <i name="hartreedc">    -22.66576490 </i>
    <i name="XCdc">    -16.90000836 </i>
    <i name="pawpsdc">     74.60762128 </i>
    <i name="pawaedc">    -40.10299741 </i>
    <i name="eentropy">     -0.00000000 </i>
    <i name="bandstr">     29.77772571 </i>
    <i name="atom">    206.86363639 </i>
    <i name="e_fr_energy">      5.38570958 </i>
    <i name="e_wo_entrp">      5.38570958 </i>
    <i name="e_0_energy">      5.38570958 </i>
   </energy>
  </scstep>
  <structure>
   <crystal>
    <varray name="basis" >
     <v>       0.00000000       2.71500000       2.71500000 </v>
     <v>       2.71500000       0.00000000       2.71500000 </v>
     <v>       2.71500000       2.71500000       0.00000000 </v>
    </varray>
    <i name="volume">     40.02575175 </i>
    <varray name="rec_basis" >
     <v>      -0.18416206       0.18416206       0.18416206 </v>
     <v>       0.18416206      -0.18416206       0.18416206 </v>
     <v>       0.18416206       0.18416206      -0.18416206 </v>
    </varray>
   </crystal>
   <varray name="positions" >
    <v>       0.00000000       0.00000000       0.00000000 </v>
    <v>       0.25000000       0.25000000       0.25000000 </v>
   </varray>
  </structure>
  <varray name="forces" >
   <v>      -0.00000019      -0.00000019      -0.00000035 </v>
   <v>       0.00000019       0.00000019       0.00000035 </v>
  </varray>
  <varray name="stress" >
   <v>     394.02780980      -0.01109289      -0.01109346 </v>
   <v>      -0.01109291     394.02780970      -0.01109330 </v>
   <v>      -0.01109337      -0.01109325     394.02780964 </v>
  </varray>
  <energy>
   <i name="e_fr_energy">      5.38570958 </i>
   <i name="e_wo_entrp">      5.38570958 </i>
   <i name="e_0_energy">      5.38570958 </i>
  </energy>
  <time name="totalsc">    0.11    0.11</time>
  <eigenvalues>
   <array>
    <dimension dim="1">band</dimension>
    <dimension dim="2">kpoint</dimension>
    <dimension dim="3">spin</dimension>
    <field>eigene</field>
    <field>occ</field>
    <set>
     <set comment="spin 1">
      <set comment="kpoint 1">
       <r>   -5.4732    1.0000 </r>
       <r>    6.7874    1.0000 </r>
       <r>    6.7874    1.0000 </r>
       <r>    6.7874    1.0000 </r>
       <r>    8.8524    0.0000 </r>
       <r>    8.8525    0.0000 </r>
       <r>    8.8525    0.0000 </r>
       <r>    9.9356    0.0000 </r>
      </set>
     </set>
    </set>
   </array>
  </eigenvalues>
  <separator name="orbital magnetization" >
   <v name="MAGDIPOLOUT">      0.00000000      0.00000000      0.00000000</v>
  </separator>
  <dos>
   <i name="efermi">      7.03712505 </i>
   <total>
    <array>
     <dimension dim="1">gridpoints</dimension>
     <dimension dim="2">spin</dimension>
     <field>energy</field>
     <field>total</field>
     <field>integrated</field>
     <set>
      <set comment="spin 1">
       <r>    -6.2437     0.0000     0.0000 </r>
       <r>    -6.1872     0.0000     0.0000 </r>
       <r>    -6.1307     0.0000     0.0000 </r>
       <r>    -6.0742     0.0000     0.0000 </r>
       <r>    -6.0177     0.0000     0.0000 </r>
       <r>    -5.9612     0.0000     0.0000 </r>
       <r>    -5.9047     0.0000     0.0000 </r>
       <r>    -5.8482     0.0000     0.0000 </r>
       <r>    -5.7917     0.0000     0.0000 </r>
       <r>    -5.7352     0.0000     0.0000 </r>
       <r>    -5.6787     0.0000     0.0000 </r>
       <r>    -5.6222     0.0004     0.0000 </r>
       <r>    -5.5657     0.1575     0.0089 </r>
       <r>    -5.5092     5.3145     0.3092 </r>
       <r>    -5.4527    19.9940     1.4388 </r>
       <r>    -5.3962     9.4134     1.9707 </r>
       <r>    -5.3397     0.5162     1.9998 </r>
       <r>    -5.2832     0.0028     2.0000 </r>
       <r>    -5.2267     0.0000     2.0000 </r>
       <r>    -5.1702     0.0000     2.0000 </r>
       <r>    -5.1137     0.0000     2.0000 </r>
       <r>    -5.0572     0.0000     2.0000 </r>
       <r>    -5.0007     0.0000     2.0000 </r>
       <r>    -4.9442     0.0000     2.0000 </r>
       <r>    -4.8877     0.0000     2.0000 </r>
       <r>    -4.8312     0.0000     2.0000 </r>
       <r>    -4.7747     0.0000     2.0000 </r>
       <r>    -4.7182     0.0000     2.0000 </r>
       <r>    -4.6617     0.0000     2.0000 </r>
       <r>    -4.6052     0.0000     2.0000 </r>
       <r>    -4.5487     0.0000     2.0000 </r>
       <r>    -4.4922     0.0000     2.0000 </r>
       <r>    -4.4357     0.0000     2.0000 </r>
       <r>    -4.3792     0.0000     2.0000 </r>
       <r>    -4.3227     0.0000     2.0000 </r>
       <r>    -4.2662     0.0000     2.0000 </r>
       <r>    -4.2097     0.0000     2.0000 </r>
       <r>    -4.1532     0.0000     2.0000 </r>
       <r>    -4.0967     0.0000     2.0000 </r>
       <r>    -4.0402     0.0000     2.0000 </r>
       <r>    -3.9837     0.0000     2.0000 </r>
       <r>    -3.9272     0.0000     2.0000 </r>
       <r>    -3.8707     0.0000     2.0000 </r>
       <r>    -3.8142     0.0000     2.0000 </r>
       <r>    -3.7577     0.0000     2.0000 </r>
       <r>    -3.7012     0.0000     2.0000 </r>
       <r>    -3.6447     0.0000     2.0000 </r>
       <r>    -3.5882     0.0000     2.0000 </r>
       <r>    -3.5317     0.0000     2.0000 </r>
       <r>    -3.4752     0.0000     2.0000 </r>
       <r>    -3.4187     0.0000     2.0000 </r>
       <r>    -3.3622     0.0000     2.0000 </r>
       <r>    -3.3057     0.0000     2.0000 </r>
       <r>    -3.2492     0.0000     2.0000 </r>
       <r>    -3.1927     0.0000     2.0000 </r>
       <r>    -3.1362     0.0000     2.0000 </r>
       <r>    -3.0797     0.0000     2.0000 </r>
       <r>    -3.0232     0.0000     2.0000 </r>
       <r>    -2.9667     0.0000     2.0000 </r>
       <r>    -2.9102     0.0000     2.0000 </r>
       <r>    -2.8537     0.0000     2.0000 </r>
       <r>    -2.7972     0.0000     2.0000 </r>
       <r>    -2.7407     0.0000     2.0000 </r>
       <r>    -2.6842     0.0000     2.0000 </r>
       <r>    -2.6277     0.0000     2.0000 </r>
       <r>    -2.5712     0.0000     2.0000 </r>
       <r>    -2.5147     0.0000     2.0000 </r>
       <r>    -2.4582     0.0000     2.0000 </r>
       <r>    -2.4017     0.0000     2.0000 </r>
       <r>    -2.3452     0.0000     2.0000 </r>
       <r>    -2.2887     0.0000     2.0000 </r>
       <r>    -2.2322     0.0000     2.0000 </r>
       <r>    -2.1757     0.0000     2.0000 </r>
       <r>    -2.1192     0.0000     2.0000 </r>
       <r>    -2.0627     0.0000     2.0000 </r>
       <r>    -2.0062     0.0000     2.0000 </r>
       <r>    -1.9497     0.0000     2.0000 </r>
       <r>    -1.8932     0.0000     2.0000 </r>
       <r>    -1.8367     0.0000     2.0000 </r>
       <r>    -1.7802     0.0000     2.0000 </r>
       <r>    -1.7237     0.0000     2.0000 </r>
       <r>    -1.6672     0.0000     2.0000 </r>
       <r>    -1.6107     0.0000     2.0000 </r>
       <r>    -1.5542     0.0000     2.0000 </r>
       <r>    -1.4977     0.0000     2.0000 </r>
       <r>    -1.4412     0.0000     2.0000 </r>
       <r>    -1.3848     0.0000     2.0000 </r>
       <r>    -1.3283     0.0000     2.0000 </r>
       <r>    -1.2718     0.0000     2.0000 </r>
       <r>    -1.2153     0.0000     2.0000 </r>
       <r>    -1.1588     0.0000     2.0000 </r>
       <r>    -1.1023     0.0000     2.0000 </r>
       <r>    -1.0458     0.0000     2.0000 </r>
       <r>    -0.9893     0.0000     2.0000 </r>
       <r>    -0.9328     0.0000     2.0000 </r>
       <r>    -0.8763     0.0000     2.0000 </r>
       <r>    -0.8198     0.0000     2.0000 </r>
       <r>    -0.7633     0.0000     2.0000 </r>
       <r>    -0.7068     0.0000     2.0000 </r>
       <r>    -0.6503     0.0000     2.0000 </r>
       <r>    -0.5938     0.0000     2.0000 </r>
       <r>    -0.5373     0.0000     2.0000 </r>
       <r>    -0.4808     0.0000     2.0000 </r>
       <r>    -0.4243     0.0000     2.0000 </r>
       <r>    -0.3678     0.0000     2.0000 </r>
       <r>    -0.3113     0.0000     2.0000 </r>
       <r>    -0.2548     0.0000     2.0000 </r>
       <r>    -0.1983     0.0000     2.0000 </r>
       <r>    -0.1418     0.0000     2.0000 </r>
       <r>    -0.0853     0.0000     2.0000 </r>
       <r>    -0.0288     0.0000     2.0000 </r>
       <r>     0.0277     0.0000     2.0000 </r>
       <r>     0.0842     0.0000     2.0000 </r>
       <r>     0.1407     0.0000     2.0000 </r>
       <r>     0.1972     0.0000     2.0000 </r>
       <r>     0.2537     0.0000     2.0000 </r>
       <r>     0.3102     0.0000     2.0000 </r>
       <r>     0.3667     0.0000     2.0000 </r>
       <r>     0.4232     0.0000     2.0000 </r>
       <r>     0.4797     0.0000     2.0000 </r>
       <r>     0.5362     0.0000     2.0000 </r>
       <r>     0.5927     0.0000     2.0000 </r>
       <r>     0.6492     0.0000     2.0000 </r>
       <r>     0.7057     0.0000     2.0000 </r>
       <r>     0.7622     0.0000     2.0000 </r>
       <r>     0.8187     0.0000     2.0000 </r>
       <r>     0.8752     0.0000     2.0000 </r>
       <r>     0.9317     0.0000     2.0000 </r>
       <r>     0.9882     0.0000     2.0000 </r>
       <r>     1.0447     0.0000     2.0000 </r>
       <r>     1.1012     0.0000     2.0000 </r>
       <r>     1.1577     0.0000     2.0000 </r>
       <r>     1.2142     0.0000     2.0000 </r>
       <r>     1.2707     0.0000     2.0000 </r>
       <r>     1.3272     0.0000     2.0000 </r>
       <r>     1.3837     0.0000     2.0000 </r>
       <r>     1.4402     0.0000     2.0000 </r>
       <r>     1.4967     0.0000     2.0000 </r>
       <r>     1.5532     0.0000     2.0000 </r>
       <r>     1.6097     0.0000     2.0000 </r>
       <r>     1.6662     0.0000     2.0000 </r>
       <r>     1.7227     0.0000     2.0000 </r>
       <r>     1.7792     0.0000     2.0000 </r>
       <r>     1.8357     0.0000     2.0000 </r>
       <r>     1.8922     0.0000     2.0000 </r>
       <r>     1.9487     0.0000     2.0000 </r>
       <r>     2.0052     0.0000     2.0000 </r>
       <r>     2.0617     0.0000     2.0000 </r>
       <r>     2.1182     0.0000     2.0000 </r>
       <r>     2.1747     0.0000     2.0000 </r>
       <r>     2.2312     0.0000     2.0000 </r>
       <r>     2.2877     0.0000     2.0000 </r>
       <r>     2.3442     0.0000     2.0000 </r>
       <r>     2.4007     0.0000     2.0000 </r>
       <r>     2.4572     0.0000     2.0000 </r>
       <r>     2.5137     0.0000     2.0000 </r>
       <r>     2.5702     0.0000     2.0000 </r>
       <r>     2.6267     0.0000     2.0000 </r>
       <r>     2.6832     0.0000     2.0000 </r>
       <r>     2.7397     0.0000     2.0000 </r>
       <r>     2.7962     0.0000     2.0000 </r>
       <r>     2.8527     0.0000     2.0000 </r>
       <r>     2.9092     0.0000     2.0000 </r>
       <r>     2.9657     0.0000     2.0000 </r>
       <r>     3.0222     0.0000     2.0000 </r>
       <r>     3.0787     0.0000     2.0000 </r>
       <r>     3.1352     0.0000     2.0000 </r>
       <r>     3.1917     0.0000     2.0000 </r>
       <r>     3.2482     0.0000     2.0000 </r>
       <r>     3.3047     0.0000     2.0000 </r>
       <r>     3.3612     0.0000     2.0000 </r>
       <r>     3.4177     0.0000     2.0000 </r>
       <r>     3.4742     0.0000     2.0000 </r>
       <r>     3.5307     0.0000     2.0000 </r>
       <r>     3.5872     0.0000     2.0000 </r>
       <r>     3.6437     0.0000     2.0000 </r>
       <r>     3.7002     0.0000     2.0000 </r>
       <r>     3.7567     0.0000     2.0000 </r>
       <r>     3.8132     0.0000     2.0000 </r>
       <r>     3.8697     0.0000     2.0000 </r>
       <r>     3.9262     0.0000     2.0000 </r>
       <r>     3.9827     0.0000     2.0000 </r>
       <r>     4.0391     0.0000     2.0000 </r>
       <r>     4.0956     0.0000     2.0000 </r>
       <r>     4.1521     0.0000     2.0000 </r>
       <r>     4.2086     0.0000     2.0000 </r>
       <r>     4.2651     0.0000     2.0000 </r>
       <r>     4.3216     0.0000     2.0000 </r>
       <r>     4.3781     0.0000     2.0000 </r>
       <r>     4.4346     0.0000     2.0000 </r>
       <r>     4.4911     0.0000     2.0000 </r>
       <r>     4.5476     0.0000     2.0000 </r>
       <r>     4.6041     0.0000     2.0000 </r>
       <r>     4.6606     0.0000     2.0000 </r>
       <r>     4.7171     0.0000     2.0000 </r>
       <r>     4.7736     0.0000     2.0000 </r>
       <r>     4.8301     0.0000     2.0000 </r>
       <r>     4.8866     0.0000     2.0000 </r>
       <r>     4.9431     0.0000     2.0000 </r>
       <r>     4.9996     0.0000     2.0000 </r>
       <r>     5.0561     0.0000     2.0000 </r>
       <r>     5.1126     0.0000     2.0000 </r>
       <r>     5.1691     0.0000     2.0000 </r>
       <r>     5.2256     0.0000     2.0000 </r>
       <r>     5.2821     0.0000     2.0000 </r>
       <r>     5.3386     0.0000     2.0000 </r>
       <r>     5.3951     0.0000     2.0000 </r>
       <r>     5.4516     0.0000     2.0000 </r>
       <r>     5.5081     0.0000     2.0000 </r>
       <r>     5.5646     0.0000     2.0000 </r>
       <r>     5.6211     0.0000     2.0000 </r>
       <r>     5.6776     0.0000     2.0000 </r>
       <r>     5.7341     0.0000     2.0000 </r>
       <r>     5.7906     0.0000     2.0000 </r>
       <r>     5.8471     0.0000     2.0000 </r>
       <r>     5.9036     0.0000     2.0000 </r>
       <r>     5.9601     0.0000     2.0000 </r>
       <r>     6.0166     0.0000     2.0000 </r>
       <r>     6.0731     0.0000     2.0000 </r>
       <r>     6.1296     0.0000     2.0000 </r>
       <r>     6.1861     0.0000     2.0000 </r>
       <r>     6.2426     0.0000     2.0000 </r>
       <r>     6.2991     0.0000     2.0000 </r>
       <r>     6.3556     0.0000     2.0000 </r>
       <r>     6.4121     0.0000     2.0000 </r>
       <r>     6.4686     0.0000     2.0000 </r>
       <r>     6.5251     0.0000     2.0000 </r>
       <r>     6.5816     0.0000     2.0000 </r>
       <r>     6.6381     0.0013     2.0001 </r>
       <r>     6.6946     0.4606     2.0261 </r>
       <r>     6.7511    15.7363     2.9152 </r>
       <r>     6.8076    59.8886     6.2988 </r>
       <r>     6.8641    28.5182     7.9101 </r>
       <r>     6.9206     1.5829     7.9995 </r>
       <r>     6.9771     0.0087     8.0000 </r>
       <r>     7.0336     0.0000     8.0000 </r>
       <r>     7.0901     0.0000     8.0000 </r>
       <r>     7.1466     0.0000     8.0000 </r>
       <r>     7.2031     0.0000     8.0000 </r>
       <r>     7.2596     0.0000     8.0000 </r>
       <r>     7.3161     0.0000     8.0000 </r>
       <r>     7.3726     0.0000     8.0000 </r>
       <r>     7.4291     0.0000     8.0000 </r>
       <r>     7.4856     0.0000     8.0000 </r>
       <r>     7.5421     0.0000     8.0000 </r>
       <r>     7.5986     0.0000     8.0000 </r>
       <r>     7.6551     0.0000     8.0000 </r>
       <r>     7.7116     0.0000     8.0000 </r>
       <r>     7.7681     0.0000     8.0000 </r>
       <r>     7.8246     0.0000     8.0000 </r>
       <r>     7.8811     0.0000     8.0000 </r>
       <r>     7.9376     0.0000     8.0000 </r>
       <r>     7.9941     0.0000     8.0000 </r>
       <r>     8.0506     0.0000     8.0000 </r>
       <r>     8.1071     0.0000     8.0000 </r>
       <r>     8.1636     0.0000     8.0000 </r>
       <r>     8.2201     0.0000     8.0000 </r>
       <r>     8.2766     0.0000     8.0000 </r>
       <r>     8.3331     0.0000     8.0000 </r>
       <r>     8.3896     0.0000     8.0000 </r>
       <r>     8.4461     0.0000     8.0000 </r>
       <r>     8.5026     0.0000     8.0000 </r>
       <r>     8.5591     0.0000     8.0000 </r>
       <r>     8.6156     0.0000     8.0000 </r>
       <r>     8.6721     0.0000     8.0000 </r>
       <r>     8.7286     0.0242     8.0014 </r>
       <r>     8.7851     2.9788     8.1697 </r>
       <r>     8.8416    37.2218    10.2727 </r>
       <r>     8.8981    55.4965    13.4082 </r>
       <r>     8.9546    10.2690    13.9883 </r>
       <r>     9.0111     0.2059    14.0000 </r>
       <r>     9.0676     0.0004    14.0000 </r>
       <r>     9.1241     0.0000    14.0000 </r>
       <r>     9.1806     0.0000    14.0000 </r>
       <r>     9.2371     0.0000    14.0000 </r>
       <r>     9.2936     0.0000    14.0000 </r>
       <r>     9.3501     0.0000    14.0000 </r>
       <r>     9.4065     0.0000    14.0000 </r>
       <r>     9.4630     0.0000    14.0000 </r>
       <r>     9.5195     0.0000    14.0000 </r>
       <r>     9.5760     0.0000    14.0000 </r>
       <r>     9.6325     0.0000    14.0000 </r>
       <r>     9.6890     0.0000    14.0000 </r>
       <r>     9.7455     0.0000    14.0000 </r>
       <r>     9.8020     0.0028    14.0002 </r>
       <r>     9.8585     0.5162    14.0293 </r>
       <r>     9.9150     9.4134    14.5612 </r>
       <r>     9.9715    19.9940    15.6908 </r>
       <r>    10.0280     5.3145    15.9911 </r>
       <r>    10.0845     0.1575    16.0000 </r>
       <r>    10.1410     0.0004    16.0000 </r>
       <r>    10.1975     0.0000    16.0000 </r>
       <r>    10.2540     0.0000    16.0000 </r>
       <r>    10.3105     0.0000    16.0000 </r>
       <r>    10.3670     0.0000    16.0000 </r>
       <r>    10.4235     0.0000    16.0000 </r>
       <r>    10.4800     0.0000    16.0000 </r>
       <r>    10.5365     0.0000    16.0000 </r>
       <r>    10.5930     0.0000    16.0000 </r>
       <r>    10.6495     0.0000    16.0000 </r>
       <r>    10.7060     0.0000    16.0000 </r>
      </set>
     </set>
    </array>
   </total>
  </dos>
 </calculation>
 <structure name="finalpos" >
  <crystal>
   <varray name="basis" >
    <v>       0.00000000       2.71500000       2.71500000 </v>
    <v>       2.71500000       0.00000000       2.71500000 </v>
    <v>       2.71500000       2.71500000       0.00000000 </v>
   </varray>
   <i name="volume">     40.02575175 </i>
   <varray name="rec_basis" >
    <v>      -0.18416206       0.18416206       0.18416206 </v>
    <v>       0.18416206      -0.18416206       0.18416206 </v>
    <v>       0.18416206       0.18416206      -0.18416206 </v>
   </varray>
  </crystal>
  <varray name="positions" >
   <v>       0.00000000       0.00000000       0.00000000 </v>
   <v>       0.25000000       0.25000000       0.25000000 </v>
  </varray>
 </structure>
</modeling>
