49
candidate_id=P1_C015 system=P1 charge=1 multiplicity=1
C   -3.7627280000  0.5582370000 -1.9821090000
C   -2.3990470000  0.7009970000 -1.7323410000
C   -1.7504900000 -0.1655380000 -0.8470130000
C   -2.4851480000 -1.1840810000 -0.2293620000
C   -3.8392540000 -1.3488740000 -0.5113260000
H   -4.2574220000  1.2511790000 -2.6571830000
H   -1.8547660000  1.4955360000 -2.2296600000
H   -2.0101740000 -1.8585380000  0.4779050000
H   -4.3904510000 -2.1566130000 -0.0378860000
P    0.0420950000  0.0319550000 -0.4459950000
C    1.1136700000 -1.4782590000 -0.3248110000
C    2.4287870000 -1.3962660000  0.1410860000
C    0.6301760000 -2.7141920000 -0.7682460000
C    3.2153180000 -2.5296870000  0.1633150000
H    2.8573600000 -0.4651190000  0.4924100000
C    1.4474150000 -3.8224930000 -0.7150460000
H   -0.3723930000 -2.8300580000 -1.1639240000
H    4.2419480000 -2.5420560000  0.5065420000
H    1.1418980000 -4.8116470000 -1.0319870000
C   -0.3825060000  0.0139510000  1.4535100000
C   -1.1872430000  1.0517290000  1.9445720000
C   -0.0176550000 -0.9642480000  2.3775670000
C   -1.5663840000  1.0711300000  3.2782630000
H   -1.5265670000  1.8545250000  1.2931790000
C   -0.4471980000 -0.8650350000  3.7025660000
H    0.5927540000 -1.8201830000  2.1075210000
H   -2.1884630000  1.8778960000  3.6591080000
H   -0.1614030000 -1.6292660000  4.4222960000
C   -4.4844370000 -0.4713520000 -1.3808230000
H   -5.5448520000 -0.5880550000 -1.5872970000
O    0.3090670000 -0.0391760000 -2.2049940000
C    0.8662440000  1.6834000000 -0.3159690000
C    1.6458680000  2.0120070000  0.8003900000
C    0.7223930000  2.6287910000 -1.3384910000
C    2.2729180000  3.2524070000  0.8880380000
H    1.7750040000  1.3058470000  1.6146140000
C    1.3170830000  3.8837050000 -1.2314110000
H    0.1556450000  2.3870810000 -2.2301120000
H    2.8872340000  3.4816860000  1.7542070000
H    1.1769020000  4.6114510000 -2.0258030000
C    1.5967950000 -0.0116010000 -2.7907710000
H    1.9518790000 -1.0313260000 -2.9956840000
H    1.5317780000  0.5326630000 -3.7398130000
H    2.3433490000  0.4938490000 -2.1627620000
C    2.0987580000  4.1973200000 -0.1212260000
H    2.5728410000  5.1719710000 -0.0443320000
N   -1.2074080000  0.1292280000  4.1651380000
N    2.7041060000 -3.6982100000 -0.2544530000
H    3.2970530000 -4.5261550000 -0.2283980000
