49
candidate_id=P1_C022 system=P1 charge=1 multiplicity=1
C    1.3685960000 -3.9409490000 -0.6420920000
C    0.6479800000 -2.7614080000 -0.8154210000
C    1.1073930000 -1.5671770000 -0.2506360000
C    2.3097550000 -1.5612080000  0.4599410000
C    3.0392440000 -2.7392790000  0.6132180000
H    0.9965530000 -4.8647870000 -1.0762690000
H   -0.2675530000 -2.7795650000 -1.4001930000
H    2.6949650000 -0.6463120000  0.8986900000
H    3.9776250000 -2.7199990000  1.1604870000
P    0.1422980000 -0.0314110000 -0.5231670000
C    1.0205960000  1.5990970000 -0.3294150000
C    0.9890000000  2.5526520000 -1.3478060000
C    1.7324550000  1.9225100000  0.8276960000
C    1.6360560000  3.7703460000 -1.1575750000
H    0.4831710000  2.3616270000 -2.2864970000
C    2.3783410000  3.1523770000  0.9070570000
H    1.7967020000  1.2477560000  1.6746550000
H    1.5992140000  4.5297050000 -1.9346270000
H    2.9532830000  3.4056280000  1.7941020000
C   -0.4591120000  0.0821030000  1.3732440000
C   -1.2030890000  1.2124050000  1.7565510000
C   -0.2920220000 -0.9214600000  2.3342430000
C   -1.7261090000  1.3207390000  3.0235400000
H   -1.3877740000  2.0264520000  1.0613800000
C   -0.8327070000 -0.7830360000  3.5986880000
H    0.2528640000 -1.8335380000  2.1199560000
H   -2.3036750000  2.1674020000  3.3732670000
H   -0.7353890000 -1.5263120000  4.3806780000
C    2.5663080000 -3.9328060000  0.0717650000
H    3.1319410000 -4.8516920000  0.1991310000
O    0.4741270000 -0.0669470000 -2.2463660000
C   -1.6414830000 -0.1468490000 -0.9787070000
C   -2.4291840000 -1.1713570000 -0.4417270000
C   -2.2312040000  0.7980410000 -1.8235140000
C   -3.7811020000 -1.2619580000 -0.7640120000
H   -1.9992300000 -1.9090820000  0.2303070000
C   -3.5918490000  0.7235250000 -2.1170090000
H   -1.6410050000  1.5979950000 -2.2569520000
H   -4.3756160000 -2.0744190000 -0.3554050000
H   -4.0409290000  1.4722890000 -2.7637690000
C    1.7941950000 -0.1759320000 -2.7463760000
H    2.0834150000 -1.2292120000 -2.8586170000
H    1.8226040000  0.3052970000 -3.7300300000
H    2.5361690000  0.3179630000 -2.1040480000
C   -4.3683230000 -0.3096970000 -1.5956530000
H   -5.4261130000 -0.3727860000 -1.8358530000
N   -1.5249530000  0.3235910000  3.9070850000
N    2.3301790000  4.0774830000 -0.0570560000
H   -1.9177030000  0.4107230000  4.8418260000
