49
candidate_id=P1_C009 system=P1 charge=1 multiplicity=1
C    1.1640990000  3.0251380000 -2.1602110000
C    1.0227280000  1.7711350000 -1.5712240000
C    0.2650180000  1.6210410000 -0.4050130000
C   -0.3062420000  2.7505020000  0.1883340000
C   -0.1300150000  4.0113540000 -0.3788120000
H    1.7359300000  3.1253910000 -3.0785520000
H    1.5185670000  0.9167260000 -2.0227840000
H   -0.8860510000  2.6578380000  1.1033850000
H   -0.5637190000  4.8833660000  0.1027290000
P    0.0733030000 -0.0098410000  0.4468280000
C   -1.8938000000  0.2961290000  0.5754030000
C   -2.5802930000  0.5875700000 -0.6165630000
C   -2.6708540000  0.1474280000  1.7318990000
C   -3.9490150000  0.7205240000 -0.6337380000
H   -2.0488190000  0.7158890000 -1.5547780000
C   -4.0439790000  0.2896560000  1.6812290000
H   -2.2150580000 -0.0799370000  2.6869140000
H   -4.5266420000  0.9454370000 -1.5217820000
H   -4.6930820000  0.1902740000  2.5426880000
C    1.9898510000 -0.2899280000  0.4229230000
C    2.8377470000  0.7274870000  0.8809400000
C    2.6159860000 -1.4550980000 -0.0207470000
C    4.2139650000  0.5454900000  0.8731490000
H    2.4380030000  1.6700510000  1.2479020000
C    4.0078350000 -1.5477970000  0.0011940000
H    2.0499290000 -2.3063360000 -0.3852810000
H    4.8723740000  1.3341590000  1.2303940000
H    4.4964810000 -2.4540240000 -0.3504940000
C    0.5930440000  4.1484900000 -1.5621830000
H    0.7192990000  5.1288750000 -2.0134170000
O    0.0027590000 -0.1295220000  2.0845900000
C   -0.3251920000 -1.5159480000 -0.5305940000
C   -0.2302260000 -1.5939420000 -1.9219390000
C   -0.7528340000 -2.6322520000  0.1967610000
C   -0.5657080000 -2.7770240000 -2.5782770000
H    0.1008930000 -0.7411840000 -2.5061290000
C   -1.0727310000 -3.8174870000 -0.4620340000
H   -0.8399550000 -2.5834340000  1.2800960000
H   -0.4955220000 -2.8265780000 -3.6614840000
H   -1.3957120000 -4.6815640000  0.1121820000
C    0.9364170000 -0.7548490000  2.9726870000
H    1.7695840000 -0.0861870000  3.2009090000
H    0.3693040000 -0.9557210000  3.8847410000
H    1.3138080000 -1.6969160000  2.5680780000
C   -0.9824950000 -3.8914020000 -1.8514160000
H   -1.2365870000 -4.8138360000 -2.3663620000
N    4.8110730000 -0.5734120000  0.4368200000
N   -4.6412850000  0.5691390000  0.5119390000
H   -5.6530070000  0.6741350000  0.4899740000
