49
candidate_id=P1_C002 system=P1 charge=1 multiplicity=1
C    4.1115130000  0.8817230000  0.1556970000
C    2.9773250000  0.1357720000 -0.1444190000
C    1.7668880000  0.7900810000 -0.4242540000
C    1.7098240000  2.1884490000 -0.4269790000
C    2.8510470000  2.9254610000 -0.1238640000
H    5.0466850000  0.3734820000  0.3710230000
H    3.0403030000 -0.9479520000 -0.1721610000
H    0.7909410000  2.7113850000 -0.6689880000
H    2.8034550000  4.0103070000 -0.1258950000
P    0.3245610000 -0.2300690000 -0.7542550000
C   -1.0842960000  0.7221000000 -1.3418000000
C   -1.6984330000  0.3397100000 -2.5409120000
C   -1.6313550000  1.7599370000 -0.5713290000
C   -2.8408880000  1.0064220000 -2.9756880000
H   -1.2973910000 -0.4775240000 -3.1324960000
C   -2.7729470000  2.4184650000 -1.0151990000
H   -1.1793860000  2.0568130000  0.3709730000
H   -3.3134610000  0.7089240000 -3.9070720000
H   -3.1927180000  3.2224300000 -0.4180440000
C   -0.7271850000 -0.3828620000  1.7837170000
C   -2.0726410000 -0.2940030000  2.1386100000
C    0.1653510000  0.4556740000  2.4596350000
C   -2.4611390000  0.6224540000  3.1113320000
H   -2.8296510000 -0.9185270000  1.6789480000
C   -0.3211800000  1.3399650000  3.4151290000
H    1.2315050000  0.4427810000  2.2569610000
H   -3.5090920000  0.7024200000  3.3896610000
H    0.3643260000  2.0011790000  3.9392540000
C    4.0470250000  2.2750690000  0.1744860000
H    4.9344760000  2.8550020000  0.4116760000
O    0.7171070000 -1.3121020000 -1.8592300000
C   -0.2347080000 -1.3349680000  0.6895410000
C    0.9190350000 -2.1883180000  1.1645850000
C   -1.3085380000 -2.2176890000  0.0949460000
C    1.0398980000 -3.4848280000  0.8295320000
H    1.6781430000 -1.7386370000  1.7940650000
C   -1.0883470000 -3.5102150000 -0.2059980000
H   -2.2655580000 -1.7819780000 -0.1686640000
H    1.8773040000 -4.0861210000  1.1660680000
H   -1.8493410000 -4.1253150000 -0.6734410000
C    1.4878800000 -0.9695510000 -3.0363670000
H    2.5505250000 -0.9809900000 -2.7860600000
H    1.2624510000 -1.7454690000 -3.7676410000
H    1.1995000000  0.0092800000 -3.4268320000
N   -1.6144690000  1.4407840000  3.7445660000
N    0.0990510000 -4.1419060000  0.0724750000
C   -3.3763710000  2.0445990000 -2.2159090000
H   -4.2688490000  2.5615770000 -2.5570230000
H    0.1819430000 -5.1380490000 -0.0728930000
