49
candidate_id=P1_C020 system=P1 charge=1 multiplicity=1
C    1.0724530000  3.0514480000 -2.1714100000
C    0.9716690000  1.7950030000 -1.5789700000
C    0.2469110000  1.6310480000 -0.3943550000
C   -0.3334660000  2.7479360000  0.2132630000
C   -0.1966360000  4.0118950000 -0.3576480000
H    1.6187690000  3.1634290000 -3.1038520000
H    1.4733010000  0.9493320000 -2.0405520000
H   -0.8891990000  2.6425000000  1.1418900000
H   -0.6356980000  4.8753400000  0.1344030000
P    0.1051680000 -0.0055670000  0.4536010000
C   -1.8803860000  0.2618590000  0.5936480000
C   -2.6487900000  0.0789680000  1.7512870000
C   -2.5795050000  0.5622400000 -0.5886650000
C   -4.0245890000  0.1959240000  1.7106690000
H   -2.1837840000 -0.1551820000  2.7001790000
C   -3.9509170000  0.6697140000 -0.5964020000
H   -2.0569710000  0.7193410000 -1.5276600000
H   -4.6667220000  0.0692730000  2.5737710000
H   -4.5374510000  0.8998950000 -1.4772400000
C    2.0027120000 -0.2890460000  0.3993680000
C    2.6076740000 -1.4808370000 -0.0123990000
C    2.8443640000  0.7533520000  0.8209360000
C    3.9981380000 -1.6256630000 -0.0161750000
H    2.0076810000 -2.3261660000 -0.3355960000
C    4.2289360000  0.6157110000  0.8263370000
H    2.4146170000  1.6958680000  1.1552170000
C    4.8138510000 -0.5788250000  0.4016910000
H    4.4380950000 -2.5629800000 -0.3476130000
H    4.8525940000  1.4417590000  1.1588400000
H    5.8950640000 -0.6896300000  0.3981120000
C    0.4938620000  4.1630350000 -1.5588580000
H    0.5890480000  5.1456870000 -2.0128030000
O    0.0276280000 -0.1247140000  2.0917090000
C   -0.3138590000 -1.5052580000 -0.5417910000
C   -0.7326130000 -2.6372260000  0.1598710000
C   -0.2524500000 -1.5813830000 -1.9317330000
C   -1.0602680000 -3.7851260000 -0.5533720000
H   -0.8066220000 -2.6404440000  1.2441600000
C   -0.6182850000 -2.7728810000 -2.5512100000
H    0.0675070000 -0.7431090000 -2.5411530000
H   -1.3781540000 -4.6809960000 -0.0257110000
H   -0.5875360000 -2.8509660000 -3.6352170000
N   -1.0131860000 -3.8659690000 -1.8884310000
C    0.9956450000 -0.6721350000  2.9943260000
H    0.4455730000 -0.8534450000  3.9209050000
H    1.4059400000 -1.6151390000  2.6263130000
H    1.8038660000  0.0380790000  3.1824550000
N   -4.6336670000  0.4843720000  0.5495640000
H   -5.6472010000  0.5714270000  0.5350890000
