49
candidate_id=P1_C011 system=P1 charge=1 multiplicity=1
C    2.8621210000  3.0630570000 -0.5596590000
C    2.1943210000  1.8478850000 -0.6927620000
C    0.8859200000  1.7079700000 -0.2184380000
C    0.2455610000  2.8056940000  0.3607420000
C    0.9093060000  4.0265240000  0.4733780000
H    3.8823570000  3.1557850000 -0.9216180000
H    2.6991760000  1.0155190000 -1.1749600000
H   -0.7717260000  2.7276490000  0.7306180000
H    0.3974470000  4.8745070000  0.9198490000
P    0.0451230000  0.0922380000 -0.4539870000
C   -1.8414410000  0.0431400000 -0.4673360000
C   -2.5228140000 -0.5947220000 -1.5079150000
C   -2.5921130000  0.6190470000  0.5632670000
C   -3.9016050000 -0.6610690000 -1.4882870000
H   -1.9968990000 -1.0316050000 -2.3459220000
C   -3.9702930000  0.5637830000  0.5247880000
H   -2.1278310000  1.1042670000  1.4131770000
H   -4.4904860000 -1.1543050000 -2.2511920000
H   -4.6108870000  1.0037620000  1.2785250000
C    0.0119630000 -0.3841880000  1.4354310000
C   -0.6147760000 -1.5831230000  1.8035820000
C    0.6197670000  0.3300420000  2.4670000000
C   -0.6184170000 -1.9909110000  3.1297380000
H   -1.1014890000 -2.2163490000  1.0634850000
C    0.5686720000 -0.1579060000  3.7737450000
H    1.1465020000  1.2612570000  2.2850990000
H   -1.1065580000 -2.9198370000  3.4159680000
H    1.0432210000  0.3993440000  4.5787160000
C    2.2210490000  4.1560690000  0.0220380000
H    2.7400290000  5.1057820000  0.1178500000
O    0.0166410000  0.3361280000 -2.2081660000
C    1.0950150000 -1.3875600000 -0.7977940000
C    2.2759890000 -1.5555040000 -0.0648380000
C    0.7364690000 -2.3535450000 -1.7422380000
C    3.0948280000 -2.6590110000 -0.2895390000
H    2.5718910000 -0.8250280000  0.6831200000
C    1.5386940000 -3.4771030000 -1.9372970000
H   -0.1660140000 -2.2444580000 -2.3323150000
H    4.0188830000 -2.7632820000  0.2723190000
H    1.2378080000 -4.2288690000 -2.6618010000
C   -0.5229390000  1.5094820000 -2.7841170000
H    0.2485470000  2.2838030000 -2.8906000000
H   -0.9072770000  1.2543410000 -3.7781980000
H   -1.3521870000  1.9351140000 -2.2003200000
C    2.7227770000 -3.6293620000 -1.2189190000
H    3.3530590000 -4.4992240000 -1.3825170000
N   -0.0390720000 -1.2953380000  4.1202440000
N   -4.5768680000 -0.0783690000 -0.4859270000
H   -5.5942780000 -0.1269560000 -0.4917930000
