49
candidate_id=P1_C023 system=P1 charge=1 multiplicity=1
C    1.1156540000 -1.3199670000 -2.7224710000
C    0.1874920000 -1.1579010000 -1.6929240000
C    0.4748620000 -1.6088980000 -0.4011050000
C    1.7144820000 -2.2197500000 -0.1576270000
C    2.6331390000 -2.3965930000 -1.1877050000
H    0.8785470000 -0.9611070000 -3.7207180000
H   -0.7618270000 -0.6759370000 -1.9076540000
H    1.9680980000 -2.5572140000  0.8452840000
H    3.5877120000 -2.8739320000 -0.9833610000
P   -0.6336810000 -1.3853620000  1.0445730000
C    2.0362190000  1.5060750000  0.4213280000
C    2.3162870000  0.9527940000  1.6732690000
C    2.9677970000  1.3122880000 -0.6006240000
C    3.4996140000  0.2434860000  1.8427310000
H    1.6232170000  1.0433320000  2.5034900000
C    4.1260160000  0.5937610000 -0.3247290000
H    2.8181600000  1.7253380000 -1.5930260000
H    3.7309870000 -0.2031550000  2.8062700000
H    4.8659320000  0.4382570000 -1.1054740000
C   -2.1892290000 -0.7865170000  0.2759740000
C   -2.6264340000  0.5013630000  0.5985700000
C   -2.9650730000 -1.5755270000 -0.5841030000
C   -3.8029980000  1.0109450000  0.0478240000
H   -2.0472500000  1.1111650000  1.2892150000
C   -4.1461490000 -1.0739770000 -1.1238760000
H   -2.6425430000 -2.5833680000 -0.8341740000
C   -4.5632460000  0.2230690000 -0.8136180000
H   -4.1289710000  2.0161170000  0.3024210000
H   -4.7423840000 -1.6924070000 -1.7896210000
H   -5.4845310000  0.6131650000 -1.2381510000
C    2.3362940000 -1.9430030000 -2.4739140000
H    3.0581450000 -2.0697120000 -3.2764130000
O   -0.9673140000 -3.0144210000  1.2759720000
C    0.7901230000  2.2709740000  0.1796310000
C    0.2279840000  3.0733960000  1.1826540000
C    0.1480860000  2.2125100000 -1.0644780000
C   -0.9243870000  3.7837380000  0.9243210000
H    0.6902760000  3.1720230000  2.1579070000
C   -1.0077730000  2.9320440000 -1.2745360000
H    0.5331830000  1.5987080000 -1.8691580000
H   -1.4068200000  4.4297330000  1.6468840000
H   -1.5603110000  2.9232770000 -2.2053100000
N   -1.5031830000  3.6937610000 -0.2851270000
C   -1.6902180000 -3.3324900000  2.4655770000
H   -1.7229840000 -4.4222350000  2.5331510000
H   -1.1883840000 -2.9282000000  3.3538350000
H   -2.7157680000 -2.9450940000  2.4186490000
N    4.4026630000  0.0639820000  0.8717050000
H   -2.3563510000  4.2219260000 -0.4574800000
