49
candidate_id=P1_C008 system=P1 charge=1 multiplicity=1
C    1.9983840000 -3.6027440000 -0.1912120000
C    1.1232240000 -2.5838810000 -0.5587560000
C    1.4990880000 -1.2642160000 -0.3065010000
C    2.7444650000 -1.0257860000  0.2832630000
C    3.5419130000 -2.1179490000  0.6076170000
H    1.7274280000 -4.6393320000 -0.3719500000
H    0.1813350000 -2.8386130000 -1.0315360000
H    3.1040220000 -0.0245030000  0.4917150000
H    4.5127890000 -1.9608940000  1.0693970000
P    0.4149480000  0.1194200000 -0.7555840000
C    0.0688510000  1.3703040000  0.6409630000
C   -0.6626850000  2.4795920000 -0.0822210000
C    1.3578760000  1.9177150000  1.2144460000
C   -0.0584840000  3.6316940000 -0.4254400000
H   -1.6820340000  2.3161850000 -0.4123440000
C    1.8687700000  3.1026700000  0.8386730000
H    1.8828860000  1.3394130000  1.9655370000
H   -0.5737670000  4.4011360000 -0.9897920000
H    2.7964120000  3.4835240000  1.2514810000
C   -0.7601400000  0.6294340000  1.6969150000
C   -2.1091630000  0.9276740000  1.9085360000
C   -0.1744060000 -0.3883600000  2.4621010000
C   -2.8588990000  0.2141450000  2.8426010000
H   -2.5942930000  1.7206830000  1.3500670000
C   -0.9233760000 -1.1042400000  3.3924110000
H    0.8751770000 -0.6391110000  2.3408310000
H   -3.9067700000  0.4626060000  2.9877940000
H   -0.4477180000 -1.8923020000  3.9697790000
O    1.0651850000  0.9144830000 -1.9737880000
C   -1.1460380000 -0.4732630000 -1.4177380000
C   -1.9738040000 -1.2965170000 -0.6407090000
C   -1.5573470000 -0.0575990000 -2.6893490000
C   -3.2049440000 -1.7032290000 -1.1432450000
H   -1.6632710000 -1.6314360000  0.3444020000
C   -2.7942210000 -0.4677730000 -3.1800260000
H   -0.9209190000  0.5812470000 -3.2923910000
H   -3.8421500000 -2.3450110000 -0.5422410000
H   -3.1131020000 -0.1443520000 -4.1664620000
C    2.4753810000  1.1485540000 -2.1854030000
H    2.9766630000  0.2031190000 -2.4050760000
H    2.5243590000  1.8086580000 -3.0508310000
H    2.9206510000  1.6346420000 -1.3159250000
C   -3.6167270000 -1.2874620000 -2.4093430000
H   -4.5807330000 -1.6054450000 -2.7963150000
N    1.2370110000  3.9225080000 -0.0689460000
H    1.5980940000  4.8521160000 -0.2301620000
N    3.1842690000 -3.3871480000  0.3850740000
C   -2.2728070000 -0.8101260000  3.5821980000
H   -2.8591780000 -1.3688420000  4.3064880000
