49
candidate_id=P1_C001 system=P1 charge=1 multiplicity=1
C   -3.9365410000 -1.6249360000 -0.4990200000
C   -2.6867440000 -1.1838200000 -0.9258180000
C   -1.6142300000 -1.1259340000 -0.0255630000
C   -1.8044160000 -1.5358940000  1.2979350000
C   -3.0487830000 -1.9980880000  1.7130530000
H   -4.7635420000 -1.6528220000 -1.2024990000
H   -2.5541550000 -0.8849720000 -1.9613730000
H   -1.0006060000 -1.4862470000  2.0211240000
H   -3.1827080000 -2.3192920000  2.7418150000
P   -0.0287970000 -0.5481540000 -0.6954860000
C    1.5141290000 -1.2540290000 -0.0366710000
C    2.5232430000 -1.5242820000 -0.9715400000
C    1.7317490000 -1.5557910000  1.3127450000
C    3.7341990000 -2.0736190000 -0.5581080000
H    2.3701190000 -1.3077190000 -2.0240640000
C    2.9334310000 -2.1276170000  1.7163170000
H    0.9857810000 -1.3329260000  2.0651070000
H    4.5123620000 -2.2654350000 -1.2909800000
H    3.0857100000 -2.3637990000  2.7653870000
C    0.0556110000  1.1415670000  0.9417910000
C    1.2628230000  1.5213890000  1.5230370000
C   -1.1112050000  1.5409060000  1.5891050000
C    1.2559180000  2.2188970000  2.7273590000
H    2.2179420000  1.2887270000  1.0569190000
C   -1.0240440000  2.2379940000  2.7913350000
H   -2.0953710000  1.3257890000  1.1791700000
H    2.1935620000  2.5074030000  3.1980610000
H   -1.9290160000  2.5411820000  3.3139490000
C   -4.1182350000 -2.0366570000  0.8191560000
H   -5.0911510000 -2.3887010000  1.1504250000
O   -0.0631580000 -1.2488460000 -2.1870140000
C    0.0390500000  1.1507310000 -1.1629140000
C   -1.1506060000  1.8809270000 -1.5168770000
C    1.2865770000  1.7473520000 -1.5643400000
C   -1.0488210000  3.1732060000 -1.9274160000
H   -2.1349720000  1.4416520000 -1.4143240000
C    1.3119400000  3.0444530000 -1.9729140000
H    2.2191370000  1.1996070000 -1.5059910000
H   -1.9125720000  3.7841220000 -2.1604440000
H    2.2274430000  3.5579310000 -2.2411220000
C   -0.1763640000 -2.6647540000 -2.3818470000
H   -1.2092210000 -2.9111850000 -2.6441800000
H    0.4877800000 -2.9327300000 -3.2065160000
H    0.1139280000 -3.2273620000 -1.4884380000
N    0.1357160000  2.5742300000  3.3701060000
N    0.1644830000  3.7582090000 -2.1029340000
H    0.2098590000  4.7135680000 -2.4391320000
C    3.9389110000 -2.3821900000  0.7844440000
H    4.8799580000 -2.8196530000  1.1058210000
