49
candidate_id=P1_C021 system=P1 charge=1 multiplicity=1
C   -2.6965590000  3.1186100000 -0.3331020000
C   -1.6340770000  2.2749890000 -0.6454410000
C   -1.7244950000  0.9060690000 -0.3619850000
C   -2.8951070000  0.3876550000  0.2143940000
C   -3.9513280000  1.2382070000  0.5192690000
H   -2.6189990000  4.1794900000 -0.5515080000
H   -0.7457400000  2.6910620000 -1.1090930000
H   -2.9921020000 -0.6721600000  0.4240400000
H   -4.8539260000  0.8319930000  0.9657780000
P   -0.3565620000 -0.1937340000 -0.7659220000
C    0.2353550000 -1.3446110000  0.6300860000
C    1.2667300000 -2.2179290000 -0.0514560000
C   -0.9039460000 -2.2121040000  1.1221650000
C    0.9919230000 -3.4747210000 -0.4434020000
H    2.2310360000 -1.7967230000 -0.3113680000
C   -1.0799070000 -3.4750630000  0.6973950000
H   -1.5966860000 -1.8018840000  1.8473200000
H    1.7169760000 -4.0774900000 -0.9791510000
H   -1.9062740000 -4.0855990000  1.0444900000
C    0.7934380000 -0.4578190000  1.7462360000
C    2.1526620000 -0.4215570000  2.0559710000
C   -0.0495810000  0.3684120000  2.4962850000
C    2.6012450000  0.4351440000  3.0569630000
H    2.8758500000 -1.0423660000  1.5406540000
C    0.4945110000  1.1911020000  3.4751300000
H   -1.1219710000  0.3909080000  2.3338530000
H    3.6603660000  0.4736520000  3.2995510000
H   -0.1535970000  1.8418550000  4.0567860000
C   -3.8511900000  2.6036300000  0.2520180000
H   -4.6777620000  3.2651930000  0.4951950000
O   -0.7587970000 -1.1512210000 -1.9773510000
C    1.0611780000  0.7239940000 -1.3822620000
C    1.6710940000  1.6997090000 -0.5801240000
C    1.5898530000  0.4148330000 -2.6403830000
C    2.8028000000  2.3618430000 -1.0434650000
H    1.2646280000  1.9577280000  0.3937980000
C    2.7247920000  1.0829520000 -3.0932310000
H    1.1221350000 -0.3411950000 -3.2623390000
H    3.2702630000  3.1208530000 -0.4232920000
H    3.1340640000  0.8426420000 -4.0700310000
C   -2.0964730000 -1.6038490000 -2.2811990000
H   -2.7228830000 -0.7526760000 -2.5572120000
H   -1.9810450000 -2.2761250000 -3.1308760000
H   -2.5215740000 -2.1410400000 -1.4317210000
C    3.3309930000  2.0527880000 -2.2969690000
H    4.2161800000  2.5716360000 -2.6540190000
N    1.8011910000  1.2426520000  3.7606910000
N   -0.2104900000 -4.0864050000 -0.1772900000
H   -0.3185060000 -5.0714080000 -0.3743790000
