14
142-2
 C         -0.6669836431        1.1284619663        0.3686859897
 O         -1.4532000846        0.0004026586        0.0279188880
 C         -0.6812390790       -1.1282130365       -0.3426369430
 C          0.6806941418       -1.1285055396        0.3426975927
 O          1.4531859645       -0.0003498164       -0.0280307984
 C          0.6675334710        1.1281918460       -0.3686319845
 H         -0.4845328798        1.1431172546        1.4534826922
 H         -1.2529003454        2.0108099180        0.1003839620
 H         -0.5407945055       -1.1430567787       -1.4336352153
 H         -1.2568917120       -2.0101657976       -0.0517772976
 H          1.2558392085       -2.0108457033        0.0517799504
 H          0.5403083842       -1.1432488746        1.4337395134
 H          0.4852268893        1.1430909881       -1.4534505693
 H          1.2539108208        2.0102319583       -0.1001128968
