50
seed_id=P2_SEED_02 system=P2 charge=2 multiplicity=1 geometry_status=rdkit_etkdg_unoptimized random_seed=20260726 conformer_id=1
C   1.9995095822  1.7517976888 -0.7343974501
O   1.1143734364  0.9222399887 -1.1660059726
P   0.1447408381  0.1291766734 -0.1800459182
C   1.4275832946 -0.8948897035 -0.7475312373
C   1.5360195184 -1.6154121548 -1.9232726224
C   2.5607283999 -2.5132525126 -2.2320127919
C   3.5336683609 -2.6861152743 -1.2864461482
C   3.4684903303 -1.9915520981 -0.1049982969
C   2.4434262959 -1.1102905138  0.1737594352
C  -1.1308402994 -1.0186896231 -0.4109089921
C  -0.9173323344 -2.3763387857 -0.3869506266
C  -1.9157675940 -3.3086127787 -0.5577206961
C  -3.1773510399 -2.8555037473 -0.7604338791
C  -3.4857183031 -1.5360633985 -0.7998641722
C  -2.4647843417 -0.6418738291 -0.6255229846
C   0.1512948149  0.2083331491  1.6226659254
C  -0.7631613965 -0.4884917263  2.3047070758
C  -0.7476364773 -0.4144689766  3.6839640578
N   0.1450214717  0.3256218766  4.3583708550
C   1.0659570121  1.0277224693  3.6786996966
C   1.0667183875  0.9671383593  2.3083462867
C  -0.6209319871  1.5419722941 -0.8118014458
C  -0.7080329252  2.6262422961  0.0792723923
C  -1.3753449870  3.7665664245 -0.2507651310
N  -1.9753127369  3.9132801364 -1.4260892820
C  -1.9465541079  2.9510374464 -2.3263484610
C  -1.2704155401  1.7816903718 -2.0069319380
H   2.8964842345  1.2514634274 -0.2619934996
H   1.7230922987  2.7041259355 -0.2305879992
H   2.5241764733  2.1858537107 -1.6724644744
H   0.7177119909 -1.4210451240 -2.6312719517
H   2.5880394661 -3.0374027927 -3.1517342472
H   4.3716573972 -3.3685042451 -1.4480843203
H   4.2790498996 -2.1683256020  0.6222930265
H   2.5142013602 -0.6347020628  1.1423064231
H   0.0868021741 -2.7431173065 -0.2251880530
H  -1.6428054433 -4.3561702587 -0.5214707563
H  -3.9617947378 -3.5780665930 -0.8966174382
H  -4.5066009674 -1.2178599873 -0.9640964130
H  -2.7466027464  0.4127710321 -0.6567558097
H  -1.5035687553 -1.0975547463  1.8393735699
H  -1.4680855647 -0.9610092432  4.2712322853
H   0.1594637875  0.3842768583  5.4145278456
H   1.8054841849  1.6402656425  4.2245172228
H   1.8134005259  1.5413448513  1.8067324398
H  -0.2603481302  2.6160901601  1.0679087067
H  -1.4402756663  4.6126194238  0.4516584518
H  -2.4774696012  4.8004686952 -1.6455166408
H  -2.4160753024  3.0317092770 -3.2805374650
H  -1.2142845499  0.9415048959 -2.7259685818
