13
1765-1
 C          1.0543055502       -0.7713879911        0.0542141470
 C         -0.4270038411       -1.1239975528       -0.1708368155
 O         -1.1641506266        0.0034586537        0.2419299977
 C         -0.4207822856        1.1249294020       -0.1758009004
 C          1.0568370399        0.7669738396        0.0609133473
 H          1.6812687628       -1.1837073187       -0.7336775791
 H          1.3987602256       -1.1634002644        1.0097269463
 H         -0.7673229385       -1.9776520728        0.4151719527
 H         -0.6128293769       -1.3233747688       -1.2374494755
 H         -0.7608204937        1.9846241273        0.4014843899
 H         -0.5994023992        1.3161578525       -1.2451534144
 H          1.3909678344        1.1489578830        1.0241719267
 H          1.6938620192        1.1849900053       -0.7157962599
