50
candidate_id=P2_C004 system=P2 charge=2 multiplicity=1
C   -1.6852890000  2.7641340000 -1.8357810000
C   -0.6722090000  1.9930470000 -1.2730950000
C   -0.7900950000  1.5404510000  0.0485190000
C   -1.9299850000  1.8623910000  0.7966740000
C   -2.9373160000  2.6356480000  0.2263020000
H   -1.5866380000  3.1162150000 -2.8585450000
H    0.2056030000  1.7474780000 -1.8648610000
H   -2.0347620000  1.5082530000  1.8173720000
H   -3.8173700000  2.8866210000  0.8116830000
P    0.3899830000  0.3369650000  0.6829460000
C   -1.5756400000 -1.4705310000 -0.1767130000
C   -2.1322750000 -1.6220060000  1.1018120000
C   -2.4217500000 -1.0980790000 -1.2277660000
C   -3.4725950000 -1.3788970000  1.2999490000
H   -1.5330960000 -1.8968380000  1.9625080000
C   -3.7567190000 -0.8564820000 -0.9802370000
H   -2.0660550000 -0.9888120000 -2.2443130000
H   -3.9621950000 -1.4669600000  2.2612500000
H   -4.4609200000 -0.5517200000 -1.7437910000
C    2.0694340000  0.9032610000  0.3183560000
C    3.0959720000 -0.0483600000  0.2616530000
C    2.3660190000  2.2620430000  0.1432180000
C    4.4067220000  0.3544150000  0.0222590000
H    2.8792370000 -1.1014050000  0.4140010000
C    3.6784970000  2.6577260000 -0.0971640000
H    1.5809560000  3.0110000000  0.1957740000
C    4.6964830000  1.7056880000 -0.1614090000
H    5.1995970000 -0.3866980000 -0.0209590000
H    3.9061420000  3.7110310000 -0.2334940000
H    5.7191920000  2.0192480000 -0.3517220000
C   -2.8195500000  3.0822450000 -1.0896260000
H   -3.6103090000  3.6811080000 -1.5328110000
O    0.1428330000  0.4364430000  2.2888440000
C   -0.0964450000 -1.6662420000 -0.3976750000
C    0.5046290000 -2.8112340000  0.2755100000
C    0.4526340000 -1.4199810000 -1.7215050000
C    1.6070530000 -3.4223200000 -0.2226820000
H    0.0820480000 -3.1896170000  1.1982420000
C    1.5733450000 -2.0568570000 -2.1471890000
H    0.0257500000 -0.6612700000 -2.3664210000
H    2.0773370000 -4.2656010000  0.2685850000
H    2.0318410000 -1.8465850000 -3.1061250000
N    2.1684990000 -3.0223220000 -1.3980760000
C    0.8504980000 -0.4670610000  3.1600150000
H    0.5139900000 -0.2293880000  4.1694680000
H    0.6060900000 -1.5055790000  2.9221900000
H    1.9299540000 -0.3035240000  3.0828960000
N   -4.2395050000 -1.0007480000  0.2633630000
H   -5.2280210000 -0.8179130000  0.4274830000
H    2.9777670000 -3.5115740000 -1.7608980000
