50
candidate_id=P2_C006 system=P2 charge=2 multiplicity=1
C   -3.7195120000  1.1061790000  1.3560070000
C   -2.4252990000  1.2069110000  0.8551550000
C   -1.9893120000  0.3271920000 -0.1429700000
C   -2.8803950000 -0.6220450000 -0.6636450000
C   -4.1722410000 -0.7182950000 -0.1536240000
H   -4.0451770000  1.7920920000  2.1323540000
H   -1.7750610000  1.9807450000  1.2445540000
H   -2.5951230000 -1.2833500000 -1.4746380000
H   -4.8519100000 -1.4610540000 -0.5605300000
P   -0.3371080000  0.4915200000 -0.8547900000
C    0.5855120000 -1.0275750000 -1.0725860000
C    1.9434570000 -0.8793540000 -1.5058220000
C    0.0293860000 -2.3443110000 -1.1837310000
C    2.7023850000 -1.9833650000 -1.7678340000
H    2.4044650000  0.0963920000 -1.6013080000
C    0.8425470000 -3.4021790000 -1.4573290000
H   -1.0131620000 -2.5435800000 -0.9787940000
H    3.7440430000 -1.9247060000 -2.0590450000
H    0.4808190000 -4.4217820000 -1.5042020000
C    0.5410290000 -0.8201150000  1.0803280000
C    1.8480260000 -0.7281540000  1.5683970000
C   -0.4037840000 -1.4845000000  1.8718470000
C    2.1744110000 -1.2431620000  2.8036830000
H    2.6341000000 -0.2483110000  0.9895450000
C   -0.0455400000 -1.9905850000  3.1044490000
H   -1.4323310000 -1.6183600000  1.5498850000
H    3.1627560000 -1.1938910000  3.2444440000
H   -0.7287520000 -2.4996260000  3.7737200000
C   -4.5910170000  0.1372820000  0.8626330000
H   -5.5991170000  0.0586500000  1.2594280000
O   -0.5998390000  1.0858020000 -2.3485340000
C    0.6648140000  1.8715630000 -0.2354830000
C    0.7613760000  2.1913050000  1.1253990000
C    1.3608850000  2.6454720000 -1.1749990000
C    1.5349270000  3.2716700000  1.5355720000
H    0.2452170000  1.6064690000  1.8777400000
C    2.1484120000  3.7136290000 -0.7543410000
H    1.2939260000  2.4174900000 -2.2326580000
H    1.5935190000  3.5140850000  2.5925000000
H    2.6906570000  4.2985450000 -1.4913580000
C   -1.2749280000  0.3567170000 -3.3834220000
H   -2.3560750000  0.3906620000 -3.2231000000
H   -1.0279330000  0.8635030000 -4.3173770000
H   -0.9290240000 -0.6806810000 -3.4304640000
C    2.2340670000  4.0312500000  0.5988620000
H    2.8434780000  4.8697680000  0.9239370000
N    1.2215260000 -1.8521530000  3.5354020000
N    2.1629320000 -3.2208350000 -1.7092690000
H    1.4701910000 -2.2291750000  4.4470710000
H    2.7394030000 -4.0253760000 -1.9337850000
