50
candidate_id=P2_C015 system=P2 charge=2 multiplicity=1
C   -1.5014520000 -2.6391700000  2.2048820000
C   -0.8550290000 -2.5092170000  0.9784240000
C   -0.0479450000 -1.3942280000  0.7144080000
C    0.0807910000 -0.4024340000  1.6931660000
C   -0.5712360000 -0.5312730000  2.9184000000
H   -2.1171240000 -3.5132110000  2.3995510000
H   -0.9796010000 -3.2834570000  0.2245760000
H    0.6806710000  0.4854080000  1.5082470000
H   -0.4620980000  0.2481920000  3.6677730000
P    0.6081840000 -1.1774240000 -0.9882690000
C    2.2629270000 -0.3838590000 -0.6377260000
C    2.7414980000  0.5172620000 -1.5939370000
C    3.0551020000 -0.6552960000  0.4839900000
C    3.9703090000  1.1232420000 -1.4146160000
H    2.1642500000  0.7604740000 -2.4799800000
C    4.2786700000 -0.0318770000  0.6236450000
H    2.7349640000 -1.3442070000  1.2573160000
H    4.4033920000  1.8340170000 -2.1070250000
H    4.9477550000 -0.1922780000  1.4595520000
C   -1.4028060000  2.0201870000 -0.0561320000
C   -0.2200860000  2.3504840000 -0.7293820000
C   -1.6171410000  2.5181930000  1.2356400000
C    0.7430400000  3.1429450000 -0.1106970000
H   -0.0330420000  1.9608850000 -1.7259940000
C   -0.6614300000  3.3248690000  1.8441730000
H   -2.5355050000  2.2810870000  1.7659440000
H    1.6663560000  3.3742500000 -0.6347770000
H   -0.8402160000  3.7105730000  2.8438320000
C   -1.3618740000 -1.6490510000  3.1781820000
H   -1.8690110000 -1.7486230000  4.1340350000
O    1.0416490000 -2.7103620000 -1.4323150000
C   -2.3765260000  1.0981530000 -0.6781330000
C   -3.0471010000  0.1410260000  0.0994450000
C   -2.6255130000  1.1206580000 -2.0592790000
C   -3.9115740000 -0.7472820000 -0.4986050000
H   -2.8726160000  0.0587970000  1.1661210000
C   -3.5011490000  0.2149110000 -2.6142020000
H   -2.1500750000  1.8482440000 -2.7069750000
H   -4.4464200000 -1.5199210000  0.0390640000
H   -3.7412260000  0.1793050000 -3.6693100000
C    1.9354900000 -3.5400750000 -0.6797130000
H    1.8060100000 -4.5557320000 -1.0591790000
H    2.9706250000 -3.2212750000 -0.8397330000
H    1.7004270000 -3.5187360000  0.3892640000
N    4.6898750000  0.8318270000 -0.3198450000
H    5.5952510000  1.2837190000 -0.2011810000
C    0.5254220000  3.6307500000  1.1769220000
H    1.2768690000  4.2499720000  1.6591020000
N   -4.1120040000 -0.6881950000 -1.8269800000
H   -4.7550020000 -1.3521690000 -2.2530140000
