50
candidate_id=P2_C021 system=P2 charge=2 multiplicity=1
C    4.0585560000 -1.2059430000 -0.4238850000
C    2.8334140000 -0.7321080000 -0.8834770000
C    1.9804210000 -0.0368230000 -0.0147700000
C    2.3816120000  0.2125180000  1.3011140000
C    3.6143180000 -0.2514100000  1.7489890000
H    4.7102500000 -1.7509340000 -1.1002310000
H    2.5553500000 -0.8952420000 -1.9210660000
H    1.7501100000  0.7639850000  1.9862460000
H    3.9208620000 -0.0509980000  2.7712940000
P    0.4201700000  0.5492680000 -0.7099130000
C   -0.3920770000  1.9442700000  0.1178180000
C   -0.8713400000  2.9639040000 -0.7177890000
C   -0.5482700000  2.0643780000  1.5050310000
C   -1.5005130000  4.0796780000 -0.1732580000
H   -0.7600620000  2.8914140000 -1.7948110000
C   -1.1627700000  3.1898880000  2.0429180000
H   -0.2195470000  1.2840030000  2.1799240000
H   -1.8747490000  4.8570130000 -0.8327550000
H   -1.2729210000  3.2732580000  3.1200280000
C   -0.7570460000 -0.9916300000  0.8461670000
C   -2.0126940000 -0.7163130000  1.3955280000
C   -0.0209030000 -2.0458420000  1.3985290000
C   -2.4786300000 -1.4384500000  2.4731020000
H   -2.6487130000  0.0668550000  0.9903090000
C   -0.5157990000 -2.7524410000  2.4747050000
H    0.9470360000 -2.3365180000  0.9999220000
H   -3.4333030000 -1.2669840000  2.9558860000
H    0.0059240000 -3.5697920000  2.9575190000
C    4.4484390000 -0.9691020000  0.8928750000
H    5.4070660000 -1.3347590000  1.2495510000
O    0.8839230000  1.1828260000 -2.1370060000
C   -0.7032090000 -0.7075820000 -1.2766850000
C   -0.2544940000 -1.9889110000 -1.7406140000
C   -2.0320260000 -0.3235480000 -1.6553320000
C   -1.1546230000 -2.8661870000 -2.2653820000
H    0.7745490000 -2.3057410000 -1.6286060000
C   -2.8786310000 -1.2525000000 -2.1830970000
H   -2.3979780000  0.6831390000 -1.4922040000
H   -0.8834660000 -3.8649750000 -2.5847730000
H   -3.9059640000 -1.0308250000 -2.4451970000
C    1.9246920000  2.1693620000 -2.2529400000
H    2.8822120000  1.6675960000 -2.4146380000
H    1.6738320000  2.7833190000 -3.1193680000
H    1.9845440000  2.8016140000 -1.3619240000
N   -1.7190130000 -2.4267140000  2.9820530000
H   -2.0731130000 -2.9543140000  3.7767020000
N   -2.4514930000 -2.5110270000 -2.4420740000
H   -3.0942570000 -3.1765100000 -2.8583920000
C   -1.6420460000  4.1974650000  1.2069970000
H   -2.1263430000  5.0719080000  1.6322080000
