49
seed_id=P1_SEED_01 system=P1 geometry_status=unoptimized charge_and_multiplicity_in_molecular_systems_json
C  -0.2597060579 -2.8396352230  0.1216059549
O  -0.8173440086 -1.6545271650  0.2699507533
P  -0.0976153084 -0.2693298187 -0.0556744875
C  -0.0046345593 -0.7010846923  1.6245206707
C  -0.9762752356 -0.6148565526  2.6164174797
C  -0.7750369144 -0.8765564359  3.9482068642
C   0.4631897634 -1.2544906770  4.3613115525
C   1.4751651438 -1.3656332236  3.4488297298
C   1.2307537969 -1.0941650747  2.1284340309
C  -1.0296788838  1.2375263477  0.0328716111
C  -1.6948013324  1.8166512253 -1.0289822004
C  -2.4060445469  2.9939338668 -0.9702725053
C  -2.4716571981  3.6612392889  0.2268858052
C  -1.8269446732  3.1340877379  1.3227253083
C  -1.1219246099  1.9442410560  1.2153656609
C   1.5664170743  0.2760827623 -0.5247511091
C   1.7247065991  1.5971220514 -0.5982366742
C   2.9785756017  2.1258943300 -0.9488981020
N   4.0159952339  1.3145174655 -1.2100390435
C   3.8693366121 -0.0222682355 -1.1393217830
C   2.6178032862 -0.5554701047 -0.7890314746
C  -0.8565984612 -0.8651602121 -1.4836786965
C  -0.0296147760 -1.3258964021 -2.4946002748
C  -0.5520742840 -1.7474077381 -3.6996108907
N  -1.8569620100 -1.7393733500 -3.9638109263
C  -2.7093255281 -1.3084622865 -3.0332126809
C  -2.2157319437 -0.8904196970 -1.8421736850
H   0.0707342432 -3.2513947598  1.1206897235
H  -1.0443010414 -3.5818478624 -0.2171361060
H   0.5635398840 -2.9504077531 -0.6042304283
H  -1.9668084526 -0.3121293940  2.2340175264
H  -1.6261418966 -0.7686338876  4.6232699154
H   0.6421428885 -1.4669435242  5.4186448190
H   2.4504003528 -1.6701577283  3.8128984094
H   2.0718231821 -1.2005771968  1.4797988417
H  -1.6725186385  1.3592360219 -2.0259810650
H  -2.9071656648  3.4035100669 -1.8246008332
H  -3.0336157409  4.5838682232  0.2602301162
H  -1.9010307234  3.6894081926  2.2500357976
H  -0.6393890549  1.6497635086  2.1479381796
H   0.9476430023  2.2946107410 -0.4041293658
H   3.1288553012  3.1850461761 -1.0136059478
H   4.9601652962  1.6965249680 -1.4737814139
H   4.6599124268 -0.6969960069 -1.3370462677
H   2.5464153696 -1.6045963284 -0.7410308962
H   1.0459041950 -1.3926121879 -2.4489885650
H   0.0953302561 -2.1145390950 -4.5083593876
H  -3.7603141072 -1.3031419387 -3.2489252997
H  -2.8715538576 -0.5245494781 -1.0345386406
