49
seed_id=P1_SEED_02 system=P1 geometry_status=unoptimized charge_and_multiplicity_in_molecular_systems_json
C  -2.0428940225  1.8720187289 -0.6046844887
O  -1.0673950659  1.0872539897 -1.1288835162
P  -0.1488098571  0.1511492708 -0.1590297121
C   0.2896042050 -1.2231336420  0.8898399876
C   1.5456348198 -1.6266645336  0.8985482482
C   1.8492978935 -2.7191304181  1.6863581726
C   0.9128455371 -3.3806561993  2.4386476657
C  -0.3738461357 -2.9015658645  2.3752650769
C  -0.6948085347 -1.8255983948  1.6042599790
C  -0.1641573087  1.3681082049  0.9817542180
C   0.3804307703  2.6338959977  0.6857358426
C   0.3653993617  3.6805620669  1.5658603219
C  -0.2075240037  3.4926085485  2.8009672422
C  -0.7540237511  2.2975997212  3.1630789923
C  -0.7167180351  1.2679189502  2.2425694477
C  -1.1832563149 -0.7720607388 -1.1891470532
C  -2.5263842219 -0.9099931866 -1.2052779548
C  -3.2291567563 -1.8226594461 -2.0166902311
N  -2.5001749721 -2.5948565393 -2.8186354643
C  -1.1697058589 -2.4853365668 -2.8285239728
C  -0.4871991109 -1.6042022516 -2.0437680408
C   1.4332943848  0.5508952443 -0.9503616013
C   1.6391019458  0.5565371763 -2.2910810452
C   2.8412824987  0.8976111320 -2.8937260151
N   3.8532777756  1.2421667112 -2.1011999275
C   3.7028520527  1.2559337286 -0.7621525170
C   2.5030216949  0.9149833647 -0.1652989047
H  -1.6438874583  2.9365086872 -0.6211602981
H  -2.9501863195  1.9516354987 -1.2538104392
H  -2.3057043550  1.7120780573  0.4550146617
H   2.4100470355 -1.2558086064  0.3478373258
H   2.8607194608 -3.0953130294  1.7320264588
H   1.1709231919 -4.2485885586  3.0613840273
H  -1.1163791382 -3.4366884202  2.9794950498
H  -1.7510484378 -1.5634371477  1.6071394598
H   0.8365970475  2.7981812100 -0.2845348063
H   0.7746609334  4.6494790515  1.3563971047
H  -0.2519662419  4.2844254092  3.5324511710
H  -1.2075135933  2.1307886713  4.1284311917
H  -1.1669618378  0.3132254469  2.5721418770
H  -3.1028235174 -0.2923842319 -0.5429067496
H  -4.2823955588 -1.8928681125 -1.9919734593
H  -2.9977717610 -3.2989781841 -3.4521187568
H  -0.6440356706 -3.1446727873 -3.5056716259
H   0.5939336231 -1.6561903869 -2.1263776418
H   0.8216783679  0.3239311338 -2.9725319056
H   2.9388374047  0.8806169470 -3.9535134030
H   4.5555803552  1.5438582374 -0.1658422037
H   2.4077074795  0.9568160602  0.9236982116
