49
seed_id=P1_SEED_03 system=P1 geometry_status=unoptimized charge_and_multiplicity_in_molecular_systems_json
C  -0.3118016961  2.3395472723  1.4429711811
O   0.3228218407  1.2701378467  1.0430804995
P   0.1055643254  0.2828446437 -0.0258572449
C   1.5483431383 -0.2666328255  0.7617810157
C   2.6744623623 -0.5543842026 -0.0378725282
C   3.8377719079 -1.0675451810  0.4914748405
C   3.9459320439 -1.3239095356  1.8391355769
C   2.8785324892 -1.0638839743  2.6687348078
C   1.6972801536 -0.5357197870  2.0967978338
C  -1.3207963230 -0.0362868525  0.8863850090
C  -2.4648940647  0.7007878763  1.0736674843
C  -3.5596606159  0.3014492501  1.8439816458
C  -3.5256984909 -0.9065283517  2.4750523954
C  -2.4102238491 -1.6687775250  2.3175413555
C  -1.3425136255 -1.2731418748  1.5620233856
C  -0.2173207537 -0.9538108277 -1.1504561786
C   0.3753903647 -2.1959215363 -0.9669165086
C   0.1235168459 -3.2076748031 -1.8237618255
N  -0.7043527131 -3.0646451188 -2.8865197771
C  -1.2672782268 -1.8681147921 -3.0542420895
C  -1.0489581342 -0.8033216149 -2.2163995472
C   0.2036265311  1.6474222284 -1.0415157331
C   1.4326127637  2.1719270387 -1.3947589187
C   1.5038826042  3.2657912663 -2.2424054173
N   0.4065454073  3.8552335248 -2.7476160340
C  -0.7905186705  3.3486161440 -2.4042275736
C  -0.9150804717  2.2481155587 -1.5543671358
H  -1.0069253654  2.2201685335  2.3327804902
H   0.4934918780  2.9806568914  1.9662433219
H  -0.6825955113  3.0936983511  0.7169459670
H   2.5376104287 -0.3733845517 -1.0868722552
H   4.6747623191 -1.2723556067 -0.1507966398
H   4.8535574015 -1.7274795123  2.2716555351
H   2.8777818690 -1.2355905392  3.7346729694
H   0.8680236866 -0.3366889046  2.7654206290
H  -2.5476821894  1.6507112837  0.6332918491
H  -4.4140565778  0.9300542664  1.9405052403
H  -4.3609336009 -1.2696512707  3.0945215288
H  -2.4119250311 -2.6377757042  2.8389337067
H  -0.5301948039 -1.9699336836  1.5279770332
H   1.0562880747 -2.4023234017 -0.1520444876
H   0.5794696451 -4.1883001871 -1.6944153690
H  -0.8935158693 -3.8512265290 -3.5405668305
H  -1.9316578436 -1.7506581553 -3.9066487049
H  -1.5680059568  0.1520021404 -2.4537448124
H   2.4031489272  1.8341104726 -1.0600053148
H   2.4484771177  3.7043625497 -2.5430005322
H  -1.6824634108  3.8313582766 -2.8167264403
H  -1.9398403306  1.9766714339 -1.3738374027
