14
142-3
 C         -0.7345592043        1.1056407415       -0.3291912913
 O         -1.3010602261        0.0260917310        0.3719488493
 C         -0.7711477883       -1.2130061358       -0.0519135801
 C          0.7378225109       -1.0975779191       -0.3482215012
 O          1.2973750825       -0.0350718689        0.3838282676
 C          0.7715144676        1.2138054051       -0.0157404062
 H         -1.2657901198        1.9980895808        0.0027976644
 H         -0.8960849517        0.9776985632       -1.4110245506
 H         -1.3048095304       -1.5652986393       -0.9492995203
 H         -0.9591630416       -1.9044933632        0.7710514594
 H          0.9098323130       -0.9439428074       -1.4251026650
 H          1.2659447198       -1.9977386722       -0.0324798925
 H          1.3138019929        1.5870004543       -0.8993850292
 H          0.9515085482        1.8856272729        0.8250941616
