49
candidate_id=P1_C004 system=P1 charge=1 multiplicity=1
C    0.8737570000  3.2134530000 -2.0151720000
C    0.9236290000  1.9199810000 -1.5003560000
C    0.3536640000  1.6499360000 -0.2528100000
C   -0.2271740000  2.6770680000  0.4959440000
C   -0.2477010000  3.9720770000 -0.0118980000
H    1.3020020000  3.4200660000 -2.9916890000
H    1.4099760000  1.1322790000 -2.0705550000
H   -0.6674700000  2.4681250000  1.4665510000
H   -0.6922020000  4.7721070000  0.5729360000
P    0.4334560000 -0.0217450000  0.4264670000
C   -1.9378640000  0.0509700000  0.4419550000
C   -2.6433230000 -0.3774340000  1.5642390000
C   -2.6590530000  0.7547220000 -0.5207810000
C   -3.9973040000 -0.0692070000  1.6863230000
H   -2.1622390000 -0.9514330000  2.3529300000
C   -4.0101200000  1.0187300000 -0.3177920000
H   -2.1893650000  1.1065570000 -1.4385800000
H   -4.5553580000 -0.3909570000  2.5640760000
H   -4.5788560000  1.5749510000 -1.0609030000
C    2.2286810000 -0.3832200000  0.2677280000
C    2.6822450000 -1.5757230000 -0.3045170000
C    3.1664540000  0.5637120000  0.7059500000
C    4.0501120000 -1.8217020000 -0.4312910000
H    1.9803940000 -2.3239900000 -0.6609680000
C    4.5291060000  0.3159410000  0.5837620000
H    2.8323210000  1.5018950000  1.1437140000
C    4.9730300000 -0.8791580000  0.0137610000
H    4.3901210000 -2.7506170000 -0.8805160000
H    5.2457390000  1.0559420000  0.9288480000
H    6.0379490000 -1.0709910000 -0.0858610000
C    0.2912730000  4.2383330000 -1.2711680000
H    0.2630310000  5.2485990000 -1.6698130000
O    0.1922650000 -0.0594480000  2.0110150000
C   -0.4151530000 -1.3182670000 -0.4386360000
C   -0.6654600000 -2.5564950000  0.2303830000
C   -0.6692920000 -1.2676660000 -1.8420010000
C   -1.3298150000 -3.5488950000 -0.4261230000
H   -0.3702220000 -2.7074700000  1.2625210000
C   -1.3388040000 -2.2977660000 -2.4357670000
H   -0.3754240000 -0.4164780000 -2.4438370000
H   -1.5819070000 -4.4968700000  0.0332050000
H   -1.5963430000 -2.3055320000 -3.4877940000
N   -1.6890750000 -3.3964190000 -1.7251250000
C    1.0976760000 -0.6377610000  2.9755960000
H    0.4968930000 -0.7728260000  3.8757900000
H    1.4782070000 -1.6026820000  2.6350040000
H    1.9226220000  0.0486550000  3.1758010000
N   -4.6872930000  0.6207700000  0.7689170000
H   -2.1666380000 -4.1578000000 -2.1965140000
