49
candidate_id=P1_C005 system=P1 charge=1 multiplicity=1
C   -3.9277980000  1.2292160000  1.1409100000
C   -2.6145270000  1.2654630000  0.6823710000
C   -2.0970940000  0.1894230000 -0.0536790000
C   -2.9065630000 -0.9192450000 -0.3269960000
C   -4.2184990000 -0.9523410000  0.1406680000
H   -4.3242810000  2.0654330000  1.7096530000
H   -1.9951400000  2.1333760000  0.8962860000
H   -2.5233740000 -1.7539010000 -0.9065920000
H   -4.8434610000 -1.8145610000 -0.0740060000
P   -0.3854980000  0.3373520000 -0.6334520000
C    0.1680270000 -1.2735140000 -1.2344900000
C    0.8027790000 -1.3885810000 -2.4770650000
C    0.1243890000 -2.3787120000 -0.3710000000
C    1.3578870000 -2.6069800000 -2.8645040000
H    0.8640590000 -0.5334670000 -3.1443940000
C    0.6805680000 -3.5915300000 -0.7644720000
H   -0.3420740000 -2.2961070000  0.6081970000
H    1.8414240000 -2.6932420000 -3.8334920000
H    0.6380690000 -4.4448520000 -0.0935120000
C    1.3764740000  0.1899400000  1.6271430000
C    2.3926670000 -0.7613930000  1.7054120000
C    0.3426610000  0.0993090000  2.5656020000
C    2.3207470000 -1.7524970000  2.6817110000
H    3.2400870000 -0.7546850000  1.0294160000
C    0.3621640000 -0.9253440000  3.5011760000
H   -0.4886770000  0.7969780000  2.5660670000
H    3.1033540000 -2.5045860000  2.7448060000
H   -0.4406150000 -1.0101100000  4.2292200000
C   -4.7285760000  0.1183520000  0.8738890000
H   -5.7523590000  0.0884180000  1.2363970000
O   -0.4043080000  1.3456680000 -1.9069790000
C    1.3719060000  1.2585610000  0.5641980000
C    0.9705770000  2.5977120000  0.9584570000
C    2.3985020000  1.2336580000 -0.4612550000
C    1.3442800000  3.6822800000  0.2336720000
H    0.3332550000  2.7462630000  1.8221970000
C    2.7233940000  2.3580380000 -1.1520060000
H    2.8658340000  0.3008700000 -0.7535480000
H    1.0344650000  4.6898640000  0.4839720000
H    3.4439560000  2.3583980000 -1.9614030000
C   -1.4297000000  1.2601820000 -2.9153730000
H   -2.3722700000  1.6493590000 -2.5204260000
H   -1.0884770000  1.8814990000 -3.7447620000
H   -1.5636400000  0.2287670000 -3.2551250000
N    1.3280960000 -1.8522120000  3.5695680000
N    2.1766680000  3.5611470000 -0.8374570000
C    1.2956620000 -3.7078570000 -2.0118450000
H    1.7302560000 -4.6560440000 -2.3160950000
H    2.4636600000  4.3893040000 -1.3451800000
