49
candidate_id=P1_C010 system=P1 charge=1 multiplicity=1
C   -2.0152600000  0.3247100000  3.2069340000
C   -1.5398850000  0.4972680000  1.9120420000
C   -0.4243210000 -0.2117560000  1.4359030000
C    0.1869070000 -1.1146380000  2.3092740000
C   -0.2857200000 -1.2962720000  3.6138260000
H   -2.8791590000  0.8912300000  3.5452790000
H   -2.0524480000  1.2034030000  1.2600360000
H    1.0412210000 -1.7083410000  1.9982580000
H    0.2122940000 -2.0066150000  4.2691740000
P    0.0513810000  0.0584460000 -0.4129290000
C    1.5863100000 -0.9818530000 -0.2992320000
C    2.7556470000 -0.4764450000  0.2747970000
C    1.6036180000 -2.2676260000 -0.8506460000
C    3.8968560000 -1.2518500000  0.2881340000
H    2.7988390000  0.5129790000  0.7154930000
C    2.7617870000 -3.0129690000 -0.7981710000
H    0.7340550000 -2.6970760000 -1.3344880000
H    4.8399610000 -0.9258190000  0.7082540000
H    2.8499630000 -4.0165460000 -1.1947100000
C    0.2596270000  1.8845990000 -0.2238100000
C   -0.1202770000  2.7599860000 -1.2489610000
C    0.8045410000  2.4190250000  0.9508240000
C    0.0165940000  4.1369380000 -1.0907740000
H   -0.5184090000  2.3711120000 -2.1787680000
C    0.9774790000  3.7935900000  1.0919540000
H    1.0954880000  1.7695590000  1.7703660000
C    0.5725000000  4.6574730000  0.0763230000
H   -0.3029180000  4.8013230000 -1.8887620000
H    1.4170090000  4.1871570000  2.0041620000
H    0.6909020000  5.7312350000  0.1935560000
C   -1.3852580000 -0.5772170000  4.0684370000
H   -1.7533390000 -0.7170600000  5.0814180000
O    0.3614870000  0.1298340000 -2.1734170000
C   -1.5675620000 -0.6880630000 -0.9311150000
C   -1.9269200000 -1.9608130000 -0.4866600000
C   -2.4812240000  0.0043230000 -1.7248000000
C   -3.1535470000 -2.4891720000 -0.8747300000
H   -1.2786540000 -2.5448020000  0.1599470000
C   -3.6996620000 -0.5973500000 -2.0253510000
H   -2.2747420000  0.9980360000 -2.1046690000
H   -3.4383490000 -3.4887110000 -0.5556730000
H   -4.4331750000 -0.0630460000 -2.6241970000
N   -4.0417500000 -1.8270780000 -1.6246060000
C    1.5785560000  0.5930060000 -2.7272630000
H    2.2489560000 -0.2480870000 -2.9534310000
H    1.3537440000  1.1200500000 -3.6616430000
H    2.1119270000  1.2902350000 -2.0666940000
N    3.8639370000 -2.4868180000 -0.2366870000
H    4.7142030000 -3.0476770000 -0.2141760000
