49
candidate_id=P1_C014 system=P1 charge=1 multiplicity=1
C    3.1745140000  2.5700910000  0.7546610000
C    2.3404990000  1.4588000000  0.6526520000
C    1.2777950000  1.4555230000 -0.2547530000
C    1.0572190000  2.5815700000 -1.0543330000
C    1.8715000000  3.7048120000 -0.9270080000
H    4.0069010000  2.5528930000  1.4527130000
H    2.5301400000  0.6008340000  1.2894960000
H    0.2557110000  2.5848120000 -1.7877090000
H    1.6802890000  4.5788110000 -1.5434410000
P    0.1891430000 -0.0166340000 -0.4322170000
C   -1.5958350000  0.1759630000 -0.9366940000
C   -2.3157030000 -0.9094010000 -1.4489400000
C   -2.2571080000  1.3956250000 -0.7494350000
C   -3.6512580000 -0.7558830000 -1.7533480000
H   -1.8558270000 -1.8766230000 -1.6128910000
C   -3.5886430000  1.5065450000 -1.0847220000
H   -1.7538280000  2.2614870000 -0.3334890000
H   -4.2725620000 -1.5504030000 -2.1471030000
H   -4.1623410000  2.4180720000 -0.9750360000
C   -0.4830890000  0.0451560000  1.3985280000
C   -0.4401680000  1.1751080000  2.2173960000
C   -1.2155450000 -1.0426650000  1.8927010000
C   -1.0863570000  1.1632680000  3.4532390000
H    0.0839350000  2.0778140000  1.9201360000
C   -1.8283050000 -0.9654720000  3.1364600000
H   -1.3194970000 -1.9607190000  1.3187810000
H   -1.0481080000  2.0421410000  4.0933340000
H   -2.3919600000 -1.8123510000  3.5215380000
C    2.9355880000  3.6993720000 -0.0265820000
H    3.5796190000  4.5699560000  0.0623680000
O    0.4247970000 -0.0370770000 -2.1838310000
C    0.9527570000 -1.6858750000 -0.2188020000
C    1.6213220000 -2.0205080000  0.9660450000
C    0.8770770000 -2.6391900000 -1.2410720000
C    2.2187840000 -3.2690480000  1.1147710000
H    1.6784740000 -1.3169550000  1.7902990000
C    1.4419690000 -3.9020900000 -1.0763440000
H    0.3781900000 -2.3975190000 -2.1727560000
H    2.7490740000 -3.5027240000  2.0336930000
H    1.3567430000 -4.6347350000 -1.8740970000
C    1.7131470000 -0.0481600000 -2.7719730000
H    2.4982900000 -0.3518020000 -2.0666180000
H    1.7122340000 -0.7591810000 -3.6064080000
H    1.9652430000  0.9485050000 -3.1561440000
C    2.1223650000 -4.2173430000  0.0976350000
H    2.5749380000 -5.1974960000  0.2207370000
N   -1.7728660000  0.1180610000  3.9240030000
N   -4.2426020000  0.4363480000 -1.5680970000
H   -5.2280500000  0.5332550000 -1.8053420000
