49
candidate_id=P1_C025 system=P1 charge=1 multiplicity=1
C   -1.5137680000  3.0225700000 -1.7426930000
C   -0.5691170000  2.1152680000 -1.2734620000
C   -0.6962070000  1.5914720000  0.0192290000
C   -1.7636450000  1.9766330000  0.8384430000
C   -2.7025230000  2.8847250000  0.3589770000
H   -1.4147310000  3.4309640000 -2.7439920000
H    0.2591620000  1.8210130000 -1.9122730000
H   -1.8688840000  1.5670220000  1.8379890000
H   -3.5323460000  3.1830340000  0.9927980000
P    0.4071360000  0.2824320000  0.5567440000
C   -1.6989340000 -1.2967540000 -0.0800880000
C   -2.3167060000 -1.5169550000  1.1537730000
C   -2.5272410000 -0.9728820000 -1.1551450000
C   -3.6978820000 -1.3928880000  1.2560700000
H   -1.7490610000 -1.7689210000  2.0429060000
C   -3.8991610000 -0.8703850000 -0.9506440000
H   -2.1345330000 -0.7913660000 -2.1489750000
H   -4.1861220000 -1.5581680000  2.2133910000
H   -4.5507320000 -0.6113550000 -1.7815940000
C    2.1140020000  0.6982350000  0.1794660000
C    3.0905450000 -0.2933990000  0.0115740000
C    2.4763450000  2.0526760000  0.1431510000
C    4.4134000000  0.0727490000 -0.2112610000
H    2.8338820000 -1.3454780000  0.0614670000
C    3.8029510000  2.4081500000 -0.0792950000
H    1.7328210000  2.8309870000  0.2868300000
C    4.7693210000  1.4202830000 -0.2607900000
H    5.1668150000 -0.6976950000 -0.3446810000
H    4.0787220000  3.4578820000 -0.1108780000
H    5.8038540000  1.7007930000 -0.4374620000
C   -2.5809900000  3.4032600000 -0.9297960000
H   -3.3194320000  4.1080260000 -1.3015260000
O    0.1931230000  0.1806710000  2.1387220000
C   -0.1654550000 -1.3510120000 -0.2223680000
C    0.4186720000 -2.5255730000  0.5390970000
C    0.3131150000 -1.3793850000 -1.6590690000
C    1.2291270000 -3.4318230000 -0.0329390000
H    0.1527280000 -2.6571820000  1.5813720000
C    1.1425300000 -2.3265390000 -2.1290370000
H   -0.0044750000 -0.5964000000 -2.3381870000
H    1.6149550000 -4.2805640000  0.5208720000
H    1.4751780000 -2.3295790000 -3.1610520000
N    1.6292700000 -3.3450520000 -1.3452930000
C    1.2540950000 -0.1837880000  3.0540230000
H    0.7631210000 -0.3312570000  4.0155640000
H    1.7437570000 -1.1062600000  2.7358940000
H    1.9760210000  0.6335870000  3.1174480000
N   -4.4940830000 -1.0693630000  0.2309750000
H    2.2061090000 -4.0678580000 -1.7499380000
