49
candidate_id=P1_C006 system=P1 charge=1 multiplicity=1
C   -2.8210090000  2.9459210000 -0.2517730000
C   -1.6699600000  2.2081100000 -0.5147660000
C   -1.7469390000  0.8179130000 -0.4435910000
C   -2.9778160000  0.2287780000 -0.1376270000
C   -4.0647630000  1.0610020000  0.1078970000
H   -2.7895950000  4.0310060000 -0.2982240000
H   -0.7544400000  2.7284420000 -0.7717790000
H   -3.1060730000 -0.8477660000 -0.0963520000
H   -5.0323170000  0.6310850000  0.3519440000
P   -0.3308500000 -0.2754620000 -0.7226540000
C    0.2017330000 -1.3003290000  0.7880280000
C    1.2352690000 -2.2505940000  0.2276810000
C   -0.9762540000 -2.0865560000  1.3143410000
C    0.9704060000 -3.5509510000  0.0042860000
H    2.2016200000 -1.8640740000 -0.0748110000
C   -1.1427040000 -3.3962760000  1.0580170000
H   -1.7168330000 -1.5774230000  1.9200490000
H    1.7051700000 -4.2156430000 -0.4364970000
H   -1.9956130000 -3.9492230000  1.4359550000
C    0.7392020000 -0.2904090000  1.8098820000
C    2.1001970000 -0.2185410000  2.1199470000
C   -0.1360790000  0.6080480000  2.4351470000
C    2.5773310000  0.7379340000  3.0151230000
H    2.8066350000 -0.9081840000  1.6713860000
C    0.3401680000  1.5662250000  3.3263960000
H   -1.2029810000  0.5735790000  2.2347740000
H    3.6398990000  0.7759880000  3.2393940000
H   -0.3576710000  2.2547220000  3.7950140000
O   -0.8038270000 -1.3927670000 -1.7561400000
C    1.0889900000  0.5920800000 -1.4004960000
C    1.6758820000  1.6656960000 -0.7138650000
C    1.6734830000  0.1060060000 -2.5769580000
C    2.8260690000  2.2601060000 -1.2220940000
H    1.2492150000  2.0399110000  0.2121570000
C    2.8251210000  0.7083540000 -3.0755040000
H    1.2422460000 -0.7404550000 -3.1023960000
H    3.2766400000  3.0931560000 -0.6909350000
H    3.2745570000  0.3314480000 -3.9893190000
C   -1.5401850000 -1.0740850000 -2.9626250000
H   -1.2220120000 -0.1157340000 -3.3802120000
H   -1.3185430000 -1.8794630000 -3.6625850000
H   -2.6072050000 -1.0532640000 -2.7329100000
C    3.3990770000  1.7846520000 -2.4014000000
H    4.2981600000  2.2520160000 -2.7929200000
N   -0.2305460000 -4.1278050000  0.3350770000
H   -0.3472210000 -5.1272930000  0.2474010000
N   -3.9981720000  2.3957570000  0.0610700000
C    1.7019570000  1.6397910000  3.6153110000
H    2.0756810000  2.3883100000  4.3086160000
