49
candidate_id=P1_C007 system=P1 charge=1 multiplicity=1
C    1.2371210000 -2.8954980000 -2.1917830000
C    1.0280340000 -1.6692880000 -1.5658770000
C    0.2157590000 -1.5854180000 -0.4291690000
C   -0.3414270000 -2.7540160000  0.0980180000
C   -0.0976690000 -3.9868600000 -0.5046790000
H    1.8486470000 -2.9428540000 -3.0886010000
H    1.5128540000 -0.7844740000 -1.9687500000
H   -0.9685790000 -2.7116240000  0.9848330000
H   -0.5246230000 -4.8888120000 -0.0750800000
P   -0.0698720000  0.0092720000  0.4697020000
C    1.9033940000  0.2722430000  0.4786480000
C    2.7066040000 -0.7426870000  1.0274240000
C    2.5623940000  1.3833550000 -0.0587340000
C    4.0780990000 -0.6355220000  1.0311890000
H    2.2643310000 -1.6362610000  1.4579830000
C    3.9423540000  1.4567340000 -0.0466440000
H    2.0198430000  2.2135700000 -0.4961010000
H    4.7462370000 -1.3820100000  1.4423980000
H    4.5058750000  2.2884160000 -0.4514680000
C   -1.9799230000 -0.3164470000  0.5949040000
C   -2.7620390000 -0.1911260000  1.7444300000
C   -2.6715170000 -0.6162970000 -0.5863960000
C   -4.1434110000 -0.3695860000  1.6681170000
H   -2.3168580000  0.0426860000  2.7044720000
C   -4.0506390000 -0.7737540000 -0.5694940000
H   -2.1489280000 -0.7323920000 -1.5329080000
H   -4.7519920000 -0.2758890000  2.5653710000
H   -4.5854840000 -1.0064520000 -1.4877380000
C    0.6797770000 -4.0578860000 -1.6589500000
H    0.8562820000 -5.0163010000 -2.1396080000
O   -0.0887010000  0.1582250000  2.1075800000
C   -0.3838070000  1.5175120000 -0.5308040000
C   -0.3472150000  1.5445280000 -1.9271980000
C   -0.6974910000  2.6850600000  0.1735900000
C   -0.6156800000  2.7300930000 -2.6095330000
H   -0.1203320000  0.6484840000 -2.4960680000
C   -0.9566740000  3.8699230000 -0.5122850000
H   -0.7465550000  2.6782870000  1.2600380000
H   -0.5903960000  2.7393660000 -3.6958540000
H   -1.1956500000  4.7716250000  0.0449260000
C    0.8248720000  0.8403680000  2.9727860000
H    0.2331070000  1.1307170000  3.8442260000
H    1.6323760000  0.1747130000  3.2881040000
H    1.2402110000  1.7384220000  2.5086180000
C   -0.9148710000  3.8955290000 -1.9055350000
H   -1.1203270000  4.8185160000 -2.4407880000
N   -4.7973970000 -0.6566280000  0.5385740000
N    4.6547490000  0.4559600000  0.4924070000
H    5.6699020000  0.5263100000  0.4967970000
