49
candidate_id=P1_C018 system=P1 charge=1 multiplicity=1
C   -3.5883350000  1.6750880000  1.1498310000
C   -2.2784680000  1.5269660000  0.7045790000
C   -1.9422710000  0.4704510000 -0.1487630000
C   -2.9414870000 -0.4145890000 -0.5741610000
C   -4.2487010000 -0.2653820000 -0.1167780000
H   -3.8353230000  2.4993140000  1.8125370000
H   -1.5363840000  2.2461120000  1.0284900000
H   -2.7256320000 -1.2217060000 -1.2650370000
H   -5.0115140000 -0.9638900000 -0.4479450000
P   -0.2612910000  0.2971740000 -0.8063780000
C    0.4291560000 -1.3304120000 -0.8285000000
C    1.7731340000 -1.4572480000 -1.3391290000
C   -0.3016190000 -2.5679530000 -0.6960300000
C    2.3710960000 -2.6788050000 -1.3886250000
H    2.3394220000 -0.5903730000 -1.6585610000
C    0.3592240000 -3.7518070000 -0.7690880000
H   -1.3567750000 -2.5831330000 -0.4615080000
H    3.3929520000 -2.8181950000 -1.7208060000
H   -0.1341360000 -4.7049800000 -0.6231370000
C    0.4951150000 -0.6455620000  1.1493520000
C    1.8188850000 -0.5264970000  1.5720530000
C   -0.4701820000 -1.0479600000  2.0753290000
C    2.1716060000 -0.7487360000  2.9016150000
H    2.5989970000 -0.2576830000  0.8609570000
C   -0.1264190000 -1.2721220000  3.4093490000
H   -1.5055970000 -1.1890780000  1.7750260000
H    3.2080030000 -0.6412890000  3.2123340000
H   -0.8938590000 -1.5684460000  4.1203070000
C   -4.5741290000  0.7746510000  0.7498750000
H   -5.5941910000  0.8894440000  1.1052820000
O   -0.4867960000  0.7213750000 -2.3893810000
C    0.8913760000  1.6928340000 -0.4942930000
C    1.0201650000  2.3097110000  0.7513520000
C    1.6713620000  2.1772690000 -1.5452110000
C    1.8960130000  3.3815500000  0.8811240000
H    0.4783570000  1.9700850000  1.6255800000
C    2.5416730000  3.2372250000 -1.3014600000
H    1.6183290000  1.7493190000 -2.5387030000
H    1.9966380000  3.8819950000  1.8403550000
H    3.1696130000  3.6144720000 -2.1042560000
C   -1.2067020000 -0.0860980000 -3.3219370000
H   -2.2812890000  0.1047410000 -3.2399470000
H   -0.8626540000  0.2070750000 -4.3160460000
H   -1.0052400000 -1.1527470000 -3.1747500000
N    1.6881370000 -3.8021670000 -1.0597790000
H    2.1456910000 -4.7036150000 -1.1342380000
C    1.1950510000 -1.1181140000  3.8278580000
H    1.4645650000 -1.2961040000  4.8655910000
N    2.6562210000  3.8440680000 -0.1174870000
