49
candidate_id=P1_C003 system=P1 charge=1 multiplicity=1
C    4.1970820000 -0.5413860000  2.2577520000
C    2.9625410000 -0.8861030000  1.7061980000
C    2.6094740000 -0.4616880000  0.4190550000
C    3.5200680000  0.3184900000 -0.3094100000
C    4.7536460000  0.6597920000  0.2374480000
H    4.4549530000 -0.8740400000  3.2595790000
H    2.2672810000 -1.4898960000  2.2863370000
H    3.2647000000  0.6677100000 -1.3063530000
H    5.4510550000  1.2630730000 -0.3376650000
P    0.9683090000 -1.0098870000 -0.2008630000
C    0.4318530000  0.4380710000 -1.2027840000
C   -0.3083770000  0.2282840000 -2.3729260000
C    0.5931370000  1.7485110000 -0.7341740000
C   -0.8616050000  1.3033130000 -3.0671910000
H   -0.4534860000 -0.7813130000 -2.7505790000
C    0.0337390000  2.8223510000 -1.4231850000
H    1.1554060000  1.9400070000  0.1763750000
H   -1.4262130000  1.1224540000 -3.9782740000
H    0.1659790000  3.8318260000 -1.0431650000
C   -2.3156230000  0.6325060000  1.0736220000
C   -2.9951280000  1.6539600000  0.4068190000
C   -1.3741780000  0.9975880000  2.0396660000
C   -2.7097550000  2.9746400000  0.7351010000
H   -3.7475250000  1.4402240000 -0.3457660000
C   -1.1597680000  2.3479370000  2.2902440000
H   -0.7882980000  0.2544330000  2.5718560000
H   -3.2296330000  3.7837340000  0.2287920000
H   -0.4243470000  2.6521190000  3.0305000000
C    5.0933780000  0.2309200000  1.5224050000
H    6.0555620000  0.5022250000  1.9487890000
O    1.3143030000 -2.1489770000 -1.3667110000
C   -2.5621580000 -0.7937660000  0.7558760000
C   -2.4875110000 -1.7741310000  1.7546520000
C   -2.8482070000 -1.1968980000 -0.5557920000
C   -2.6714500000 -3.0991990000  1.4273780000
H   -2.2949270000 -1.5149390000  2.7891870000
C   -3.0216940000 -2.5340990000 -0.8372690000
H   -2.9086600000 -0.4824450000 -1.3681390000
H   -2.6250720000 -3.9083570000  2.1453840000
H   -3.2274210000 -2.9182320000 -1.8283640000
C    2.3052070000 -1.9502350000 -2.3780810000
H    3.3098930000 -2.0130070000 -1.9468180000
H    2.1727230000 -2.7541800000 -3.1061720000
H    2.1812090000 -0.9842630000 -2.8795530000
N   -1.8115690000  3.3316440000  1.6600220000
N   -2.9239380000 -3.4386480000  0.1519050000
C   -0.6949310000  2.6034130000 -2.5921320000
H   -1.1317290000  3.4418660000 -3.1280980000
H   -3.0503870000 -4.4234940000 -0.0743370000
