49
candidate_id=P1_C017 system=P1 charge=1 multiplicity=1
C    3.0688560000 -2.7722260000  0.6654640000
C    1.9302950000 -2.2032400000  0.1009580000
C    1.8942290000 -0.8195560000 -0.0699230000
C    3.0060910000 -0.0713870000  0.3342530000
C    4.0941830000 -0.7403510000  0.8830350000
H    3.1234540000 -3.8487260000  0.8056220000
H    1.1083020000 -2.8433010000 -0.2015470000
H    3.0379490000  1.0084450000  0.2200880000
H    4.9716830000 -0.1833100000  1.2009240000
P    0.4534720000  0.1036050000 -0.6844370000
C   -0.5313370000  1.7138720000  0.6145750000
C   -1.4005080000  2.3228830000 -0.3799640000
C    0.5459870000  2.5875430000  1.0563460000
C   -1.0571280000  3.4831350000 -0.9961480000
H   -2.2975060000  1.8128030000 -0.7111540000
C    0.8272430000  3.7435430000  0.4038820000
H    1.1616680000  2.3081810000  1.9032590000
H   -1.6590290000  3.9292830000 -1.7789150000
H    1.6412020000  4.3969230000  0.6950420000
C   -1.1254340000  0.7712970000  1.6316720000
C   -2.5077490000  0.5843120000  1.7192510000
C   -0.2933680000  0.0474400000  2.4983950000
C   -3.0455700000 -0.3184730000  2.6370410000
H   -3.1835380000  1.1443030000  1.0812060000
C   -0.8297500000 -0.8525670000  3.4124530000
H    0.7859140000  0.1657300000  2.4529250000
H   -4.1227560000 -0.4517910000  2.6861350000
H   -0.1664560000 -1.4092240000  4.0687650000
O    0.9920180000  0.9985470000 -1.9197860000
C   -0.7865240000 -1.0367990000 -1.3341780000
C   -1.3985250000 -1.9527000000 -0.4641870000
C   -1.2646660000 -0.8953500000 -2.6428740000
C   -2.4490810000 -2.7446930000 -0.9169320000
H   -1.0639380000 -2.0472020000  0.5662250000
C   -2.3197480000 -1.6897800000 -3.0865700000
H   -0.8221720000 -0.1676510000 -3.3167150000
H   -2.9139680000 -3.4562620000 -0.2405250000
H   -2.6825950000 -1.5802580000 -4.1046130000
C    1.8855840000  0.4725890000 -2.9231750000
H    1.6477380000 -0.5673620000 -3.1636130000
H    1.7514140000  1.0982680000 -3.8067780000
H    2.9156900000  0.5462410000 -2.5652990000
C   -2.9090550000 -2.6163430000 -2.2278060000
H   -3.7326840000 -3.2330290000 -2.5767380000
N    0.0609740000  4.1700130000 -0.6381270000
H    0.2728860000  5.0515570000 -1.0890710000
N    4.1359190000 -2.0670110000  1.0559090000
C   -2.2106560000 -1.0441560000  3.4815830000
H   -2.6299370000 -1.7510410000  4.1922410000
