49
candidate_id=P1_C016 system=P1 charge=1 multiplicity=1
C   -4.7786800000 -1.1283260000 -0.1524760000
C   -3.5103620000 -0.7576260000  0.2815660000
C   -2.7701450000  0.1489100000 -0.4823780000
C   -3.3557260000  0.6338920000 -1.6534730000
C   -4.6335250000  0.2030190000 -2.0044160000
H   -5.3704390000 -1.8314620000  0.4285780000
H   -3.1168720000 -1.1792060000  1.2015950000
H   -2.8308590000  1.3362270000 -2.2961250000
H   -5.1038010000  0.5682890000 -2.9141090000
P   -1.0856180000  0.7834270000 -0.0511610000
C    2.4909780000  1.1254160000 -0.5744310000
C    2.5215850000  1.5529450000  0.7629340000
C    2.2995110000  2.0983320000 -1.5693790000
C    2.3332750000  2.8818190000  1.0670310000
H    2.6568670000  0.8526970000  1.5777270000
C    2.1205740000  3.4170510000 -1.2198340000
H    2.2957580000  1.8377430000 -2.6211960000
H    2.3244730000  3.2708060000  2.0772620000
H    1.9660080000  4.2128550000 -1.9372820000
C    2.6249410000 -0.3059020000 -0.9188360000
C    3.3938840000 -1.1642530000 -0.1213970000
C    1.9599810000 -0.8286210000 -2.0371370000
C    3.5006660000 -2.5143040000 -0.4403830000
H    3.9300500000 -0.7780580000  0.7407310000
C    2.0622610000 -2.1807940000 -2.3482980000
H    1.3325550000 -0.1885890000 -2.6508930000
H    4.1051620000 -3.1670000000  0.1830050000
H    1.5300460000 -2.5754370000 -3.2092200000
O   -1.4046730000  1.9638230000  1.0741560000
C   -0.4335630000 -0.6016800000  0.9673600000
C   -0.3807420000 -1.8920650000  0.4225690000
C    0.1566950000 -0.3684920000  2.2131010000
C    0.2353050000 -2.9287330000  1.1180160000
H   -0.8216130000 -2.0940460000 -0.5517480000
C    0.7726340000 -1.4079570000  2.9106670000
H    0.1427950000  0.6285780000  2.6458520000
H    0.2682710000 -3.9238800000  0.6827660000
H    1.2231810000 -1.2122730000  3.8802930000
C   -2.3947920000  1.8142000000  2.0984570000
H   -2.3196720000  0.8427020000  2.5977900000
H   -2.2124870000  2.6095760000  2.8247620000
H   -3.3973800000  1.9307460000  1.6741770000
C    0.8137800000 -2.6893490000  2.3652920000
H    1.2981420000 -3.4982020000  2.9057470000
N    2.1345400000  3.7703460000  0.0777810000
H    1.9957140000  4.7491840000  0.3198770000
N   -5.3432050000 -0.6641060000 -1.2752130000
C    2.8338430000 -3.0265350000 -1.5524990000
H    2.9121190000 -4.0825900000 -1.7957450000
