49
candidate_id=P1_C024 system=P1 charge=1 multiplicity=1
C    0.5523420000 -2.8187910000 -2.5531680000
C    0.2066730000 -1.6324220000 -1.9082120000
C    0.3113920000 -1.5367660000 -0.5187040000
C    0.7577730000 -2.6393430000  0.2181720000
C    1.0857420000 -3.8288280000 -0.4287710000
H    0.4754730000 -2.8816010000 -3.6352270000
H   -0.1389500000 -0.7914260000 -2.5008550000
H    0.8519050000 -2.5759150000  1.3001250000
H    1.4220380000 -4.6825150000  0.1532790000
P   -0.0948590000 -0.0279120000  0.4522480000
C    1.8792690000  0.2812860000  0.5896740000
C    2.5725160000  0.5418320000 -0.6054810000
C    2.6493880000  0.1756110000  1.7555390000
C    3.9402110000  0.6864430000 -0.6174750000
H    2.0482990000  0.6361520000 -1.5519740000
C    4.0217150000  0.3278280000  1.7100910000
H    2.1886960000 -0.0254670000  2.7140050000
H    4.5221710000  0.8890910000 -1.5080420000
H    4.6652620000  0.2607180000  2.5788210000
C   -1.9994020000 -0.2581710000  0.4091230000
C   -2.6292040000 -1.4343590000 -0.0095960000
C   -2.8169550000  0.7982570000  0.8421260000
C   -4.0223260000 -1.5498950000 -0.0102660000
H   -2.0440370000 -2.2874150000 -0.3397260000
C   -4.2042250000  0.6896070000  0.8501510000
H   -2.3676870000  1.7284880000  1.1854050000
C   -4.8148200000 -0.4890990000  0.4176370000
H   -4.4831860000 -2.4752050000 -0.3470210000
H   -4.8097130000  1.5255600000  1.1913550000
H   -5.8981460000 -0.5770480000  0.4162700000
C    0.9869410000 -3.9198570000 -1.8165040000
H    1.2479980000 -4.8452100000 -2.3226490000
O   -0.0163520000 -0.1456410000  2.0912620000
C   -0.2393230000  1.6095680000 -0.4265700000
C    0.3103430000  2.7459500000  0.1648080000
C   -0.9419790000  1.7735000000 -1.6200890000
C    0.1413380000  3.9797600000 -0.4573070000
H    0.8592900000  2.6938390000  1.1008020000
C   -1.0190240000  3.0422360000 -2.1852040000
H   -1.4413530000  0.9438100000 -2.1096700000
H    0.5443350000  4.8795730000  0.0007070000
H   -1.5371260000  3.1851280000 -3.1301610000
N   -0.4963970000  4.1381790000 -1.6217490000
C   -0.9774190000 -0.7259480000  2.9809310000
H   -0.4276520000 -0.9126940000  3.9066130000
H   -1.7998430000 -0.0345720000  3.1776170000
H   -1.3683790000 -1.6703220000  2.5954090000
N    4.6252830000  0.5763110000  0.5369740000
H    5.6363040000  0.6890340000  0.5190950000
