49
candidate_id=P1_C012 system=P1 charge=1 multiplicity=1
C   -1.4961680000  2.8805120000 -1.8681230000
C   -0.5419130000  2.0442190000 -1.2948740000
C   -0.7245300000  1.5657590000  0.0098170000
C   -1.8697790000  1.9280240000  0.7302870000
C   -2.8171000000  2.7674810000  0.1510150000
H   -1.3477840000  3.2512530000 -2.8783420000
H    0.3417130000  1.7715290000 -1.8658280000
H   -2.0272810000  1.5520210000  1.7363210000
H   -3.7027400000  3.0461840000  0.7150060000
P    0.3845040000  0.3022320000  0.6591840000
C   -1.6890320000 -1.4400870000 -0.1423480000
C   -2.2172690000 -1.5922930000  1.1434440000
C   -2.5704410000 -1.0495920000 -1.1510440000
C   -3.5641210000 -1.3320690000  1.3600020000
H   -1.5975260000 -1.8847270000  1.9853540000
C   -3.9034140000 -0.8084290000 -0.8307730000
H   -2.2514120000 -0.9258210000 -2.1798170000
H   -3.9823690000 -1.4395240000  2.3576210000
H   -4.5950940000 -0.4913500000 -1.6072530000
C    2.0907480000  0.8196180000  0.3301500000
C    3.0790600000 -0.1675990000  0.2357620000
C    2.4457250000  2.1720430000  0.2316670000
C    4.4086850000  0.1922090000  0.0306700000
H    2.8168770000 -1.2166060000  0.3320360000
C    3.7758730000  2.5261790000  0.0259720000
H    1.6902260000  2.9482770000  0.3152900000
C    4.7555910000  1.5378500000 -0.0788020000
H    5.1711160000 -0.5779290000 -0.0435040000
H    4.0476680000  3.5749800000 -0.0524090000
H    5.7923460000  1.8188250000 -0.2424990000
C   -2.6348360000  3.2404540000 -1.1481940000
H   -3.3795350000  3.8905110000 -1.5991290000
O    0.1315610000  0.4356620000  2.2662730000
C   -0.2194640000 -1.6601830000 -0.4096730000
C    0.3847060000 -2.8211560000  0.2366510000
C    0.2918610000 -1.4202820000 -1.7519600000
C    1.4590440000 -3.4490500000 -0.2979890000
H   -0.0177820000 -3.1934470000  1.1710740000
C    1.3869020000 -2.0734720000 -2.2163200000
H   -0.1520660000 -0.6601660000 -2.3835380000
H    1.9295670000 -4.3041910000  0.1724100000
H    1.8146480000 -1.8718380000 -3.1913220000
N    1.9923470000 -3.0511010000 -1.4891430000
C    0.8121780000 -0.4815100000  3.1419770000
H    0.4396760000 -0.2694310000  4.1446940000
H    0.5859680000 -1.5174240000  2.8751910000
H    1.8928890000 -0.3099980000  3.1062360000
N   -4.4098150000 -0.9386050000  0.3993030000
H    2.7792940000 -3.5537080000 -1.8805230000
