49
candidate_id=P1_C013 system=P1 charge=1 multiplicity=1
C   -1.4533490000  2.8730580000 -2.1838980000
C   -1.1733360000  1.6400210000 -1.6038630000
C   -0.4455280000  1.6064830000 -0.4154760000
C   -0.0739090000  2.8215830000  0.1567850000
C   -0.4413700000  4.0045390000 -0.4778990000
H   -1.9940400000  2.9203950000 -3.1258500000
H   -1.5364110000  0.7338310000 -2.0791270000
H    0.4920370000  2.8638450000  1.0829700000
H   -0.1804320000  4.9629910000 -0.0360210000
P   -0.0454040000  0.0353150000  0.5035190000
C   -1.9048830000 -0.4850820000  0.4252970000
C   -2.8553890000  0.4329520000  0.9032190000
C   -2.3807400000 -1.6938960000 -0.0902470000
C   -4.2179160000  0.1583680000  0.8689300000
H   -2.5292560000  1.3871880000  1.3136510000
C   -3.7503240000 -1.9767720000 -0.1339780000
H   -1.7002380000 -2.4500790000 -0.4694060000
H   -4.9261120000  0.8905990000  1.2485700000
H   -4.0880580000 -2.9251920000 -0.5442920000
C    1.8392910000  0.5095170000  0.6249720000
C    2.4731640000  0.9623760000 -0.5424080000
C    2.6419930000  0.3049760000  1.7541530000
C    3.8426410000  1.2128830000 -0.5830020000
H    1.8962480000  1.1294860000 -1.4500180000
C    4.0168180000  0.5523830000  1.7222520000
H    2.1969200000 -0.0522030000  2.6764400000
H    4.2988250000  1.5684050000 -1.5036620000
H    4.6116270000  0.3874160000  2.6175450000
O   -0.0236140000 -0.0274470000  2.1487600000
C    0.5263790000 -1.4358650000 -0.4959740000
C    0.5733270000 -1.4824230000 -1.8922720000
C    0.9885630000 -2.5383100000  0.2348420000
C    1.0821290000 -2.6025510000 -2.5156550000
H    0.2296260000 -0.6603850000 -2.5087700000
C    1.4778520000 -3.6397620000 -0.4315690000
H    0.9769540000 -2.5490230000  1.3203210000
H    1.1589510000 -2.7096370000 -3.5903740000
H    1.8487880000 -4.5286180000  0.0630580000
C   -0.9162110000 -0.6873900000  3.0511730000
H   -0.3184860000 -0.9033270000  3.9405660000
H   -1.7472820000 -0.0311180000  3.3201250000
H   -1.3022620000 -1.6225090000  2.6398810000
N   -1.1067210000  4.0448680000 -1.6375810000
N    1.5129760000 -3.6377600000 -1.7755510000
C    4.6238450000  1.0084800000  0.5547390000
H    5.6930230000  1.2026120000  0.5293180000
C   -4.6734370000 -1.0534530000  0.3444380000
H   -5.7376810000 -1.2713020000  0.3106900000
H    1.8857840000 -4.4559710000 -2.2539210000
