49
candidate_id=P1_C019 system=P1 charge=1 multiplicity=1
C   -3.6394170000  0.0273730000 -2.0643200000
C   -2.3465600000  0.4275620000 -1.7402880000
C   -1.5238460000 -0.4577790000 -1.0444760000
C   -2.0442420000 -1.7107430000 -0.7173070000
C   -3.3399550000 -2.0242740000 -1.1134420000
H   -4.3007450000  0.7103850000 -2.5919440000
H   -2.0104320000  1.4172400000 -2.0283350000
H   -1.4690160000 -2.4448840000 -0.1613890000
H   -3.7543760000 -3.0027690000 -0.8835690000
P    0.1789780000  0.0356960000 -0.5099540000
C    0.6399990000  1.8049440000 -0.2331360000
C    0.4512740000  2.7477060000 -1.2510440000
C    1.1871860000  2.2310180000  0.9844010000
C    0.7834930000  4.0854670000 -1.0497340000
H    0.0504040000  2.4388910000 -2.2097280000
C    1.5522680000  3.5614140000  1.1723070000
H    1.3321400000  1.5361790000  1.8055080000
H    0.6138130000  4.8042130000 -1.8464920000
H    1.9913000000  3.8674290000  2.1176440000
C    1.4699710000 -1.2418750000 -0.2456120000
C    2.5667500000 -1.0060520000  0.5868750000
C    1.3754780000 -2.4581580000 -0.9291190000
C    3.5524880000 -1.9794640000  0.7410000000
H    2.6689290000 -0.0666310000  1.1209470000
C    2.3479720000 -3.4397500000 -0.7519400000
H    0.5508410000 -2.6444780000 -1.6110870000
H    4.4070420000 -1.7791710000  1.3813640000
H    2.2569800000 -4.3856540000 -1.2785950000
O    0.5292690000  0.1128360000 -2.2264260000
C   -0.5284600000 -0.1153240000  1.3466830000
C   -1.4989670000  0.8133970000  1.7629550000
C   -0.2275880000 -1.1561850000  2.2325230000
C   -2.1038760000  0.7030430000  2.9932900000
H   -1.7966190000  1.6402090000  1.1245020000
C   -0.8529000000 -1.2384180000  3.4619720000
H    0.4943610000 -1.9260680000  1.9860950000
H   -2.8532670000  1.3898380000  3.3666810000
H   -0.6565280000 -2.0182510000  4.1870650000
C    1.8445320000  0.3221550000 -2.7086730000
H    2.3407610000 -0.6364560000 -2.9086380000
H    1.7780070000  0.8877660000 -3.6445910000
H    2.4673430000  0.8932010000 -2.0070130000
C    3.4398700000 -3.2020320000  0.0817980000
H    4.2039540000 -3.9637500000  0.2104840000
C    1.3423930000  4.4949730000  0.1588070000
H    1.6138000000  5.5360770000  0.3107600000
N   -4.1413050000 -1.1770990000 -1.7695210000
N   -1.7618650000 -0.3143780000  3.8071120000
H   -2.2125000000 -0.3851010000  4.7167980000
