15
NHC4 isolated neutral singlet ligand seed; unoptimized for this task
N   0.0071509689  0.9710259948 -1.9273044145
N   0.3140832653 -1.1646253306 -1.7953034866
C  -0.0199496970  0.6724921587 -0.5660585332
C   0.1821769909 -0.7210251503 -0.4777909085
C   0.1825473166 -0.1449707425 -2.6979907372
C  -0.2393366891  1.4547395839  0.5693041539
C   0.1735717447 -1.3811599495  0.7526699787
C  -0.0614796992 -0.5999161080  1.8893757663
C  -0.2634258951  0.7917269889  1.7994546929
H  -0.1171094651  1.8906046804 -2.3453289797
H   0.4544855180 -2.1244800539 -2.0969080825
H  -0.4000026129  2.5298055355  0.4953976112
H  -0.4472496238  1.3613304652  2.7092536286
H  -0.0922364364 -1.0781017903  2.8671356345
H   0.3267743143 -2.4574462823  0.8240936762
