50
candidate_id=P2_C014 system=P2 charge=2 multiplicity=1
C   -1.4406720000  3.0387300000 -1.7733170000
C   -0.5158530000  2.1106890000 -1.3062500000
C   -0.6247630000  1.6262310000  0.0037030000
C   -1.6535600000  2.0711590000  0.8420180000
C   -2.5728140000  3.0002470000  0.3641370000
H   -1.3550680000  3.4185270000 -2.7869270000
H    0.2845240000  1.7713480000 -1.9581110000
H   -1.7409620000  1.6939700000  1.8561000000
H   -3.3703710000  3.3488170000  1.0135440000
P    0.4563070000  0.3038050000  0.5532170000
C   -1.6845370000 -1.2452050000 -0.0577660000
C   -2.3129490000 -1.4567410000  1.1761060000
C   -2.4800530000 -0.9094710000 -1.1581740000
C   -3.6795260000 -1.3135840000  1.2834210000
H   -1.7585370000 -1.7205150000  2.0682420000
C   -3.8429420000 -0.7734910000 -1.0045860000
H   -2.0566150000 -0.7442160000 -2.1408090000
H   -4.2272790000 -1.4566280000  2.2062010000
H   -4.5141590000 -0.5074050000 -1.8111260000
C    2.1647020000  0.6601290000  0.1464460000
C    3.1124320000 -0.3611980000 -0.0109210000
C    2.5590350000  2.0046590000  0.0802190000
C    4.4411990000 -0.0325530000 -0.2545370000
H    2.8278250000 -1.4044410000  0.0616100000
C    3.8916730000  2.3210010000 -0.1623530000
H    1.8360930000  2.8033050000  0.2176960000
C    4.8300000000  1.3045740000 -0.3338570000
H    5.1739150000 -0.8238510000 -0.3804250000
H    4.1945910000  3.3621770000 -0.2167670000
H    5.8694680000  1.5548040000 -0.5260470000
C   -2.4695740000  3.4796280000 -0.9412230000
H   -3.1910230000  4.2028690000 -1.3107050000
O    0.2413990000  0.2093480000  2.1321370000
C   -0.1509230000 -1.3343160000 -0.1847990000
C    0.4020100000 -2.4943590000  0.6216790000
C    0.3270790000 -1.4267560000 -1.6192300000
C    1.0726010000 -3.5106680000  0.0521050000
H    0.2335810000 -2.5212880000  1.6919640000
C    1.0115050000 -2.4861140000 -2.0830510000
H    0.1217120000 -0.6101910000 -2.3024050000
H    1.4319450000 -4.3508150000  0.6359140000
H    1.3335520000 -2.5450010000 -3.1167100000
N    1.3617290000 -3.5499930000 -1.2891020000
C    1.3187250000 -0.0353410000  3.0704500000
H    0.8301240000 -0.1608970000  4.0360860000
H    1.8631460000 -0.9423220000  2.8007160000
H    1.9880310000  0.8272040000  3.0913760000
N   -4.3983470000 -0.9736560000  0.2015260000
H   -5.4068430000 -0.8688950000  0.2988570000
H    1.8961120000 -4.3163680000 -1.6718970000
