50
candidate_id=P2_C019 system=P2 charge=2 multiplicity=1
C    1.0672580000  3.0450960000 -2.2218820000
C    0.9766900000  1.7996950000 -1.6052730000
C    0.2571460000  1.6550740000 -0.4151480000
C   -0.3300120000  2.7790020000  0.1735100000
C   -0.2034320000  4.0317580000 -0.4227970000
H    1.6105070000  3.1428170000 -3.1575860000
H    1.4828720000  0.9491780000 -2.0522940000
H   -0.8819400000  2.6884340000  1.1057910000
H   -0.6469150000  4.9015880000  0.0534730000
P    0.1237000000  0.0412220000  0.4693800000
C   -1.8620780000  0.2844040000  0.6035070000
C   -2.6228740000  0.1175310000  1.7679680000
C   -2.5641870000  0.5675210000 -0.5801710000
C   -3.9987360000  0.2372550000  1.7318340000
H   -2.1535960000 -0.1016260000  2.7182010000
C   -3.9361120000  0.6779100000 -0.5823210000
H   -2.0457710000  0.7157160000 -1.5229670000
H   -4.6368640000  0.1257280000  2.5999110000
H   -4.5262310000  0.8990640000 -1.4630410000
C    2.0067250000 -0.2920780000  0.3912500000
C    2.5749440000 -1.5287290000  0.0660810000
C    2.8803920000  0.7561980000  0.7231670000
C    3.9604610000 -1.7109690000  0.0579770000
H    1.9546060000 -2.3839680000 -0.1835580000
C    4.2606230000  0.5810670000  0.7228360000
H    2.4814810000  1.7321170000  0.9912460000
C    4.8082520000 -0.6574650000  0.3848900000
H    4.3712070000 -2.6826290000 -0.2042310000
H    4.9094710000  1.4129520000  0.9843730000
H    5.8858840000 -0.7976840000  0.3780810000
C    0.4826300000  4.1637960000 -1.6289220000
H    0.5698000000  5.1380190000 -2.1020230000
O    0.0549530000 -0.0260450000  2.1040020000
C   -0.3152470000 -1.4895050000 -0.5029900000
C   -0.7463130000 -2.5957600000  0.2386460000
C   -0.2553030000 -1.5851050000 -1.8952390000
C   -1.0971270000 -3.7568510000 -0.4156290000
H   -0.8119020000 -2.5656440000  1.3216930000
C   -0.6322620000 -2.7632420000 -2.5073090000
H    0.0767050000 -0.7627590000 -2.5172700000
H   -1.4310830000 -4.6558090000  0.0871010000
H   -0.6207200000 -2.9148960000 -3.5791940000
N   -1.0333370000 -3.8023700000 -1.7570180000
C    1.0663550000 -0.4171720000  3.0420130000
H    0.5298580000 -0.5785770000  3.9797190000
H    1.5628710000 -1.3418370000  2.7416870000
H    1.8022040000  0.3788920000  3.1731020000
N   -4.6120840000  0.5105770000  0.5694330000
H   -5.6255860000  0.6024640000  0.5596820000
H   -1.3007740000 -4.6655490000 -2.2275010000
