50
candidate_id=P2_C008 system=P2 charge=2 multiplicity=1
C    0.6506530000  4.1534090000 -0.6911920000
C    0.6604300000  2.7752670000 -0.8915800000
C   -0.1529370000  1.9438090000 -0.1135640000
C   -0.9966680000  2.5121330000  0.8446000000
C   -1.0301370000  3.8936740000  1.0182820000
H    1.2989750000  4.7867990000 -1.2900030000
H    1.3003510000  2.3534140000 -1.6610160000
H   -1.6311780000  1.8930320000  1.4690000000
H   -1.7010800000  4.3239050000  1.7563750000
P   -0.0972400000  0.1328500000 -0.4078150000
C   -1.7399780000 -0.7859690000 -0.3409410000
C   -2.1561780000 -1.5877580000 -1.4065820000
C   -2.5709930000 -0.6809760000  0.7788340000
C   -3.3637750000 -2.2542630000 -1.3333640000
H   -1.5606710000 -1.6944750000 -2.3037870000
C   -3.7854390000 -1.3359910000  0.7965760000
H   -2.2920060000 -0.1088320000  1.6548260000
H   -3.7426210000 -2.8988430000 -2.1164030000
H   -4.4856540000 -1.2826230000  1.6206950000
C    0.3460730000 -0.4013350000  1.3884590000
C    0.2357510000 -1.7598060000  1.7242490000
C    0.9373170000  0.4542750000  2.3245390000
C    0.6716310000 -2.2419410000  2.9554570000
H   -0.1904960000 -2.4685250000  1.0153100000
C    1.3754590000 -0.0221860000  3.5621110000
H    1.0713840000  1.5085970000  2.1020120000
H    0.5682160000 -3.2987020000  3.1881770000
H    1.8237220000  0.6671050000  4.2730870000
C   -0.1995530000  4.7160580000  0.2591660000
H   -0.2172440000  5.7923540000  0.4062700000
O   -0.2900490000  0.3396600000 -2.1472280000
C    1.5156710000 -0.6473640000 -0.9284420000
C    2.7239080000 -0.0290780000 -0.5854750000
C    1.5520620000 -1.8761960000 -1.5964090000
C    3.9159980000 -0.6303120000 -0.9258100000
H    2.7564870000  0.9112190000 -0.0462370000
C    2.7693600000 -2.4496330000 -1.8963590000
H    0.6514770000 -2.4021850000 -1.8881930000
H    4.8871140000 -0.2062060000 -0.7036950000
H    2.8763750000 -3.3999700000 -2.4039520000
C   -1.3432880000  1.1032260000 -2.7117710000
H   -0.9597260000  2.0653090000 -3.0720390000
H   -1.7640600000  0.5482490000 -3.5579750000
H   -2.1530890000  1.3059960000 -1.9977440000
N   -4.1378680000 -2.1004890000 -0.2490560000
H   -5.0348800000 -2.5837550000 -0.2177720000
C    1.2408040000 -1.3701610000  3.8842830000
H    1.5807160000 -1.7411430000  4.8474890000
N    3.9044030000 -1.8143500000 -1.5614160000
H    4.7941200000 -2.2501850000 -1.7964770000
