50
candidate_id=P2_C002 system=P2 charge=2 multiplicity=1
C   -1.5405760000  2.7724770000 -2.1672640000
C   -1.1848700000  1.5658420000 -1.6022660000
C   -0.4655240000  1.5516210000 -0.4040960000
C   -0.1635730000  2.7662710000  0.2168260000
C   -0.5753200000  3.9496990000 -0.3617240000
H   -2.0765590000  2.8665530000 -3.1031200000
H   -1.4854150000  0.6519010000 -2.1024460000
H    0.3887410000  2.8074160000  1.1495830000
H   -0.3929530000  4.9272950000  0.0666340000
P   -0.0051510000 -0.0392180000  0.5172760000
C   -1.8671090000 -0.5189520000  0.4485140000
C   -2.7917530000  0.3776100000  1.0095330000
C   -2.3663080000 -1.6804750000 -0.1460800000
C   -4.1590740000  0.1263760000  0.9758260000
H   -2.4444740000  1.2916200000  1.4893400000
C   -3.7404480000 -1.9374630000 -0.1879480000
H   -1.7006500000 -2.4160830000 -0.5875070000
H   -4.8495780000  0.8383370000  1.4205510000
H   -4.1000610000 -2.8486390000 -0.6591360000
C    1.8389540000  0.5405100000  0.6131210000
C    2.4288580000  0.9857530000 -0.5795760000
C    2.6536440000  0.4651040000  1.7493090000
C    3.7721130000  1.3474700000 -0.6408740000
H    1.8415040000  1.0571510000 -1.4929440000
C    4.0014120000  0.8288120000  1.6964300000
H    2.2401670000  0.1213320000  2.6903960000
H    4.1961740000  1.6885630000 -1.5818750000
H    4.6079820000  0.7654580000  2.5964720000
O    0.0635220000 -0.2212140000  2.1480090000
C    0.5739850000 -1.4924890000 -0.4971470000
C    0.6178330000 -1.5491300000 -1.8933530000
C    1.0498190000 -2.5840540000  0.2402650000
C    1.1298210000 -2.6717230000 -2.5098590000
H    0.2728760000 -0.7351800000 -2.5191530000
C    1.5432070000 -3.6883460000 -0.4204490000
H    1.0494640000 -2.5877540000  1.3254210000
H    1.2024950000 -2.7866480000 -3.5840050000
H    1.9235030000 -4.5697720000  0.0802480000
C   -0.8078210000 -0.9584360000  3.0150990000
H   -0.1926500000 -1.2219540000  3.8789020000
H   -1.6456840000 -0.3365120000  3.3374680000
H   -1.1813450000 -1.8701110000  2.5440060000
N   -1.2337900000  3.9160730000 -1.5311930000
N    1.5688600000 -3.6981270000 -1.7635090000
C    4.5666730000  1.2714230000  0.5030190000
H    5.6154880000  1.5535150000  0.4622480000
C   -4.6408220000 -1.0360040000  0.3700390000
H   -5.7087510000 -1.2346680000  0.3367590000
H   -1.5193540000  4.7975390000 -1.9548510000
H    1.9439500000 -4.5183700000 -2.2373440000
