50
candidate_id=P2_C016 system=P2 charge=2 multiplicity=1
C   -2.4674130000 -1.4669290000 -3.1169460000
C   -1.4458060000 -0.6453370000 -2.6472360000
C   -0.8570890000 -0.9106720000 -1.4043240000
C   -1.3246510000 -1.9762810000 -0.6192200000
C   -2.3422500000 -2.7935490000 -1.1003160000
H   -2.9184280000 -1.2623910000 -4.0835700000
H   -1.1177990000  0.1980260000 -3.2475560000
H   -0.9049620000 -2.1687880000  0.3654320000
H   -2.6965070000 -3.6215360000 -0.4933040000
P    0.3340840000  0.2466910000 -0.7091960000
C    1.9057610000 -0.5943780000 -0.3170880000
C    2.9905110000  0.2285270000  0.0194790000
C    2.0521370000 -1.9829290000 -0.2519280000
C    4.1804180000 -0.3500180000  0.4089810000
H    2.9220980000  1.3101240000 -0.0247360000
C    3.2643180000 -2.5125080000  0.1419680000
H    1.2516380000 -2.6634090000 -0.5155530000
H    5.0632850000  0.2132110000  0.6838220000
H    3.4626280000 -3.5747770000  0.2090260000
C   -1.0049120000  0.4214380000  1.7975310000
C   -0.0119780000 -0.2879600000  2.4878300000
C   -2.3430630000  0.0800830000  2.0086200000
C   -0.3482080000 -1.3257630000  3.3500320000
H    1.0370330000 -0.0385920000  2.3477390000
C   -2.6805070000 -0.9605380000  2.8744500000
H   -3.1383050000  0.6227760000  1.5086300000
H    0.4367740000 -1.8662970000  3.8716790000
H   -3.7267220000 -1.2135320000  3.0223960000
C   -2.9119070000 -2.5417080000 -2.3484840000
H   -3.7101260000 -3.1791490000 -2.7181600000
O    0.7071700000  1.3396300000 -1.8247930000
C   -0.6185470000  1.5144170000  0.8261160000
C   -1.6663240000  2.1349780000  0.0162840000
C    0.3949510000  2.4686690000  1.2765700000
C   -1.5310150000  3.3972790000 -0.4623140000
H   -2.5370950000  1.5633660000 -0.2832980000
C    0.4597890000  3.7227800000  0.7662840000
H    1.1298620000  2.1707390000  2.0152220000
H   -2.2714490000  3.8576730000 -1.1058520000
H    1.2162960000  4.4372790000  1.0685390000
C    1.5245480000  1.0379380000 -2.9801680000
H    1.1993070000  1.7197230000 -3.7665330000
H    2.5720930000  1.2225170000 -2.7307500000
H    1.3899970000  0.0020590000 -3.3022280000
N    4.2761670000 -1.6887880000  0.4592550000
H    5.1624960000 -2.1016300000  0.7473990000
C   -1.6869010000 -1.6711560000  3.5416500000
H   -1.9511550000 -2.4848700000  4.2112880000
N   -0.4641540000  4.1736060000 -0.1288140000
H   -0.4148310000  5.1280380000 -0.4630490000
