50
candidate_id=P2_C024 system=P2 charge=2 multiplicity=1
C    4.1898410000  0.3282380000  0.3118610000
C    2.9809560000 -0.2194860000 -0.1010090000
C    1.8773110000  0.6193110000 -0.3272400000
C    2.0017180000  2.0040580000 -0.1621330000
C    3.2173900000  2.5410840000  0.2516890000
H    5.0423150000 -0.3216720000  0.4846630000
H    2.9046790000 -1.2908530000 -0.2589110000
H    1.1691930000  2.6697710000 -0.3624750000
H    3.3130210000  3.6154090000  0.3770840000
P    0.3318450000 -0.1564030000 -0.8112770000
C   -0.9258120000  1.0263800000 -1.3074860000
C   -1.5425180000  0.8757520000 -2.5555190000
C   -1.3614110000  2.0221860000 -0.4206150000
C   -2.5752210000  1.7347750000 -2.9213270000
H   -1.2293370000  0.0918770000 -3.2381900000
C   -2.3942780000  2.8740680000 -0.7965490000
H   -0.9036020000  2.1400670000  0.5574160000
H   -3.0503230000  1.6190940000 -3.8908280000
H   -2.7269190000  3.6480280000 -0.1114060000
C   -0.7941800000 -0.5194260000  1.7023590000
C   -2.1281440000 -0.3365840000  2.0778380000
C    0.2028250000  0.0738750000  2.4904400000
C   -2.4333070000  0.4326230000  3.1814500000
H   -2.9457170000 -0.7864940000  1.5297820000
C   -0.1470530000  0.8352360000  3.5839900000
H    1.2580340000 -0.0441100000  2.2730430000
H   -3.4444670000  0.6168110000  3.5219490000
H    0.5716980000  1.3239870000  4.2293830000
C    4.3062490000  1.7061900000  0.4958600000
H    5.2522720000  2.1309830000  0.8192430000
O    0.6217110000 -1.1562540000 -2.0158620000
C   -0.4224450000 -1.3504100000  0.4714250000
C    0.5781280000 -2.4262330000  0.8300240000
C   -1.6062400000 -1.9646820000 -0.2400160000
C    0.4809300000 -3.6822950000  0.3590890000
H    1.4063910000 -2.1760930000  1.4829760000
C   -1.6004160000 -3.2382810000 -0.6740090000
H   -2.4609050000 -1.3420660000 -0.4798680000
H    1.2106080000 -4.4425880000  0.6140420000
H   -2.4379250000 -3.6563510000 -1.2212890000
C    1.4663390000 -0.7837530000 -3.1350970000
H    2.5070390000 -0.9912560000 -2.8794880000
H    1.1445330000 -1.4139880000 -3.9637020000
H    1.3398970000  0.2703800000 -3.3936110000
N   -1.4444640000  0.9965700000  3.8917050000
N   -0.5538880000 -4.0930470000 -0.4427830000
C   -2.9989100000  2.7326460000 -2.0456020000
H   -3.8055030000  3.4002070000 -2.3347790000
H   -0.6210300000 -5.0611730000 -0.7229710000
H   -1.6873910000  1.5598010000  4.7050080000
