50
candidate_id=P2_C012 system=P2 charge=2 multiplicity=1
C    0.6673680000  3.2811430000 -2.0075850000
C    0.8201750000  1.9881860000 -1.5132020000
C    0.3104380000  1.6671910000 -0.2510190000
C   -0.3156330000  2.6439060000  0.5294490000
C   -0.4427470000  3.9388420000  0.0376380000
H    1.0512380000  3.5279830000 -2.9930170000
H    1.3371760000  1.2413700000 -2.1106330000
H   -0.7041350000  2.3962590000  1.5128700000
H   -0.9218260000  4.7003620000  0.6460030000
P    0.5223730000  0.0049360000  0.4094580000
C   -1.9646880000 -0.0058860000  0.4115340000
C   -2.6551730000 -0.4368560000  1.5504570000
C   -2.7093530000  0.6225020000 -0.5944800000
C   -4.0126730000 -0.2207240000  1.6717980000
H   -2.1441810000 -0.9467700000  2.3623540000
C   -4.0643390000  0.8242020000 -0.4469740000
H   -2.2387340000  0.9689700000 -1.5124720000
H   -4.6044230000 -0.5174050000  2.5298690000
H   -4.6954630000  1.3112790000 -1.1809140000
C    2.3126190000 -0.2947870000  0.2368670000
C    2.8050260000 -1.5046360000 -0.2649580000
C    3.2134400000  0.7106760000  0.6186480000
C    4.1798710000 -1.7073400000 -0.3794790000
H    2.1306980000 -2.2978340000 -0.5732690000
C    4.5836210000  0.5029200000  0.5078370000
H    2.8463550000  1.6589290000  1.0040740000
C    5.0680600000 -0.7071660000  0.0079770000
H    4.5531400000 -2.6483120000 -0.7731480000
H    5.2737370000  1.2862350000  0.8076520000
H    6.1389410000 -0.8671640000 -0.0820220000
C    0.0387890000  4.2549920000 -1.2331690000
H   -0.0694800000  5.2654030000 -1.6173320000
O    0.2315410000 -0.0366940000  1.9798300000
C   -0.3108450000 -1.3394770000 -0.4225920000
C   -0.5244840000 -2.5551830000  0.2869620000
C   -0.5526200000 -1.3386660000 -1.8228990000
C   -1.1243130000 -3.6047290000 -0.3482090000
H   -0.2516060000 -2.6546590000  1.3311950000
C   -1.1575090000 -2.4225680000 -2.3965560000
H   -0.2986630000 -0.4906300000 -2.4467220000
H   -1.3445050000 -4.5458530000  0.1404520000
H   -1.4015840000 -2.4739690000 -3.4504870000
N   -1.4554670000 -3.5141970000 -1.6574450000
C    1.1681560000 -0.5112980000  2.9742150000
H    0.5730150000 -0.6350450000  3.8792020000
H    1.6032500000 -1.4680190000  2.6786540000
H    1.9501520000  0.2325960000  3.1369280000
N   -4.6743890000  0.4024590000  0.6785290000
H   -5.6739170000  0.5601230000  0.7809610000
H   -1.8872200000 -4.3136230000 -2.1118750000
