50
candidate_id=P2_C023 system=P2 charge=2 multiplicity=1
C   -1.2350410000  2.9413970000 -2.1683010000
C   -1.0502990000  1.7054800000 -1.5544840000
C   -0.2526890000  1.6009860000 -0.4093080000
C    0.3158360000  2.7544510000  0.1386850000
C    0.0974880000  3.9961670000 -0.4547510000
H   -1.8366600000  3.0077600000 -3.0703850000
H   -1.5415780000  0.8309720000 -1.9716490000
H    0.9270480000  2.6955880000  1.0357950000
H    0.5308490000  4.8878160000 -0.0106890000
P   -0.0001600000 -0.0058880000  0.4605510000
C   -1.9514570000 -0.2892390000  0.4562280000
C   -2.7721890000  0.7187720000  0.9897580000
C   -2.5858710000 -1.4180440000 -0.0717320000
C   -4.1420120000  0.5872420000  0.9877530000
H   -2.3474190000  1.6237770000  1.4134710000
C   -3.9646940000 -1.5149300000 -0.0646770000
H   -2.0268880000 -2.2433740000 -0.4970260000
H   -4.8251140000  1.3266620000  1.3867920000
H   -4.5117650000 -2.3609400000 -0.4621610000
C    1.9427710000  0.3112210000  0.5837510000
C    2.7140620000  0.1381680000  1.7397730000
C    2.6291480000  0.6289170000 -0.6006060000
C    4.0873180000  0.2828770000  1.6954640000
H    2.2558440000 -0.1103150000  2.6881430000
C    3.9983370000  0.7635060000 -0.6098260000
H    2.1017960000  0.7761720000 -1.5379030000
H    4.7338670000  0.1652250000  2.5564110000
H    4.5779600000  1.0075480000 -1.4913960000
C   -0.6661710000  4.0892960000 -1.6166740000
H   -0.8242850000  5.0551620000 -2.0885110000
O    0.0442900000 -0.1320750000  2.0919780000
C    0.3626090000 -1.5032350000 -0.5335540000
C    0.3311600000 -1.5273920000 -1.9302020000
C    0.7048320000 -2.6610100000  0.1737710000
C    0.6369390000 -2.7040490000 -2.6115520000
H    0.0778260000 -0.6374980000 -2.4978040000
C    1.0003960000 -3.8368180000 -0.5126840000
H    0.7442950000 -2.6539680000  1.2606650000
H    0.6152620000 -2.7142100000 -3.6978220000
H    1.2598980000 -4.7329730000  0.0440570000
C   -0.8631650000 -0.8078410000  2.9730730000
H   -0.2674010000 -1.0691100000  3.8503510000
H   -1.6789230000 -0.1447460000  3.2703080000
H   -1.2631830000 -1.7208550000  2.5256910000
C    0.9667450000 -3.8605640000 -1.9061910000
H    1.2002670000 -4.7767730000 -2.4414270000
N    4.6864500000  0.5879780000  0.5340680000
N   -4.6959220000 -0.5201810000  0.4591340000
H    5.6984460000  0.6940750000  0.5171580000
H   -5.7100900000 -0.6078040000  0.4591450000
