50
candidate_id=P2_C020 system=P2 charge=2 multiplicity=1
C    2.5488520000 -3.2284330000 -0.6805240000
C    1.4560270000 -2.3951190000 -0.7904580000
C    1.5317800000 -1.0892660000 -0.2937340000
C    2.7273800000 -0.6544290000  0.2859980000
C    3.7998750000 -1.5201910000  0.3613670000
H    2.5635960000 -4.2507480000 -1.0362180000
H    0.5649940000 -2.7754180000 -1.2764530000
H    2.8481850000  0.3481710000  0.6788730000
H    4.7576330000 -1.2533200000  0.7900280000
P    0.0882470000  0.0550390000 -0.5068130000
C    0.3941520000  1.8597530000 -0.2682920000
C    0.0642670000  2.7626770000 -1.2866660000
C    0.9629850000  2.3527280000  0.9129150000
C    0.2706190000  4.1289060000 -1.1136960000
H   -0.3437290000  2.4038530000 -2.2245050000
C    1.2025660000  3.7152780000  1.0694980000
H    1.2292180000  1.6848050000  1.7265190000
H   -0.0082060000  4.8159990000 -1.9074540000
H    1.6606440000  4.0762940000  1.9858770000
C   -0.4543670000 -0.1422300000  1.3916310000
C   -1.5400890000  0.6407190000  1.8229770000
C    0.0884950000 -1.0397980000  2.3171020000
C   -2.0311520000  0.5252620000  3.1017620000
H   -2.0181220000  1.3545010000  1.1583570000
C   -0.4311030000 -1.1327200000  3.5954670000
H    0.9170870000 -1.6952420000  2.0748150000
H   -2.8618300000  1.1023440000  3.4883650000
H   -0.0521310000 -1.8096220000  4.3513720000
O    0.4436610000  0.1139890000 -2.2182510000
C   -1.5607000000 -0.6214960000 -0.9804000000
C   -1.9990600000 -1.8388610000 -0.4479790000
C   -2.4009260000  0.0922560000 -1.8405470000
C   -3.2504460000 -2.3460470000 -0.7898460000
H   -1.3728230000 -2.4053790000  0.2360500000
C   -3.6665680000 -0.4006890000 -2.1509260000
H   -2.0838420000  1.0371510000 -2.2675490000
H   -3.5700210000 -3.3018840000 -0.3843400000
H   -4.3172100000  0.1722450000 -2.8057200000
C    1.7038060000  0.5062250000 -2.7371640000
H    2.3340090000 -0.3737660000 -2.9220900000
H    1.5318000000  1.0221050000 -3.6874930000
H    2.2447490000  1.1899670000 -2.0701650000
C   -4.0913500000 -1.6234520000 -1.6341730000
H   -5.0740700000 -2.0112390000 -1.8878170000
N   -1.4634640000 -0.3549800000  3.9494120000
H   -1.8351670000 -0.4329870000  4.8938370000
N    3.6768270000 -2.7694430000 -0.1128760000
C    0.8453440000  4.6085720000  0.0615580000
H    1.0184420000  5.6734740000  0.1900790000
H    4.4779390000 -3.3957140000 -0.0471380000
