18
1475-18
 C         -2.7279115882       -0.9565864248       -0.2012361317
 C         -2.2887447496        0.4909517666       -0.3881971437
 C         -1.3438745617        0.9823367693        0.7101516713
 C         -0.0205279009        0.2218107665        0.8097075732
 C          0.8261008367        0.3488325629       -0.4457481584
 S          2.4532938947       -0.4559406437       -0.1598760136
 H         -3.1580359106       -1.0982662380        0.7879301186
 H         -1.8901996398       -1.6398737985       -0.3134795937
 H         -3.4789374088       -1.2205073014       -0.9423848653
 H         -3.1739198963        1.1316544935       -0.3814591566
 H         -1.8146686372        0.6060714919       -1.3648118738
 H         -1.8542104211        0.9011281270        1.6725878217
 H         -1.1291766607        2.0404109418        0.5389762509
 H         -0.2059609759       -0.8338061439        1.0135751179
 H          0.5480467228        0.6215629598        1.6532993765
 H          1.0115232674        1.3960052167       -0.6872878764
 H          0.3630035130       -0.1514424704       -1.2950047338
 H          2.9440578608       -0.2077929690       -1.3723267237
