18
1475-9
 C         -3.0754701233        0.4005870945        0.2155193273
 C         -1.9174394914       -0.5703809088        0.4156841123
 C         -0.8956729976       -0.5318243944       -0.7216044616
 C         -0.0734672074        0.7556848356       -0.7917605243
 C          0.9560491854        0.8773036876        0.3217286906
 S          2.2251917359       -0.4378613761        0.2666049209
 H         -3.5664424835        0.2150036018       -0.7376016728
 H         -2.7343440270        1.4329431776        0.2304604946
 H         -3.8101861817        0.2788390061        1.0081472212
 H         -2.3179739263       -1.5847533561        0.4771008005
 H         -1.4255206464       -0.3595677551        1.3668449698
 H         -1.4231677371       -0.6620807250       -1.6692036302
 H         -0.2076533705       -1.3727943300       -0.6074786139
 H         -0.7321586865        1.6250457007       -0.7419422772
 H          0.4448459878        0.7920388739       -1.7541788548
 H          0.4976793743        0.7746032445        1.3038649141
 H          1.4748112756        1.8353213504        0.2746241745
 H          2.6754220256       -0.1457994338       -0.9523983495
