      -----------------------------------------------------------
     |                   =====================                   |
     |                           x T B                           |
     |                   =====================                   |
     |                         S. Grimme                         |
     |          Mulliken Center for Theoretical Chemistry        |
     |                    University of Bonn                     |
      -----------------------------------------------------------

   * xtb version 6.6.1 (8d0f1dd) compiled by 'conda@1efc2f54142f' on 2023-08-01

