NHC1 adsorbed Pd/Cu(111), published SI coordinates
1.0
  10.365540000000  0.000000000000  0.000000000000
  0.000000000000  8.976820000000  0.000000000000
  0.000000000000  0.000000000000  20.000000000000
  Cu  Pd  N  C  H
  47  1  2  3  4
Direct
  0.000000000000  0.000000000000  0.000000000000
  0.250000000000  0.000000000000  0.000000000000
  0.375000000000  0.250000000000  0.000000000000
  0.125000000000  0.250000000000  0.000000000000
  0.500000000000  0.000000000000  0.000000000000
  0.750000000000  0.000000000000  0.000000000000
  0.875000000000  0.250000000000  0.000000000000
  0.625000000000  0.250000000000  0.000000000000
  0.000000000000  0.333340000000  0.105790000000
  0.250000000000  0.333340000000  0.105790000000
  0.125000000000  0.083340000000  0.105790000000
  0.375000000000  0.083340000000  0.105790000000
  0.500000000000  0.333340000000  0.105790000000
  0.750000000000  0.333340000000  0.105790000000
  0.625000000000  0.083340000000  0.105790000000
  0.875000000000  0.083340000000  0.105790000000
  0.125616047745  0.416445029847  0.210423141420
  0.001251133213  0.165853306945  0.210320230611
  0.249842074750  0.166193047783  0.210367602912
  0.372078695013  0.416799335182  0.210627847312
  0.498454723061  0.162761338827  0.210580779339
  0.752557821786  0.160846741184  0.208898880535
  0.880544803847  0.416680726225  0.210017423299
  0.000000000000  0.500000000000  0.000000000000
  0.250000000000  0.500000000000  0.000000000000
  0.375000000000  0.750000000000  0.000000000000
  0.125000000000  0.750000000000  0.000000000000
  0.500000000000  0.500000000000  0.000000000000
  0.750000000000  0.500000000000  0.000000000000
  0.875000000000  0.750000000000  0.000000000000
  0.625000000000  0.750000000000  0.000000000000
  0.000000000000  0.833340000000  0.105790000000
  0.250000000000  0.833340000000  0.105790000000
  0.125000000000  0.583340000000  0.105790000000
  0.375000000000  0.583340000000  0.105790000000
  0.500000000000  0.833340000000  0.105790000000
  0.750000000000  0.833340000000  0.105790000000
  0.625000000000  0.583340000000  0.105790000000
  0.875000000000  0.583340000000  0.105790000000
  0.125394396654  0.916721517731  0.210571461743
  0.001569238296  0.667452849579  0.210309912129
  0.249678868437  0.667126386523  0.210422519085
  0.374246288583  0.916802416686  0.210388235832
  0.625172156330  0.916450601392  0.210780653111
  0.497679594995  0.670872913482  0.210025509671
  0.753210780751  0.672015288244  0.209246194452
  0.876553628020  0.916802749126  0.210639049069
  0.627548629004  0.417131236062  0.223162228685
  0.718186412321  0.318242854289  0.364172537227
  0.670850111951  0.549730330305  0.364541584453
  0.669830886338  0.427576609412  0.323543052941
  0.750717926765  0.370527988037  0.427302615507
  0.720529621900  0.518792155154  0.427526206113
  0.792148297789  0.300097322926  0.465677098888
  0.730209600146  0.602357614165  0.466260015802
  0.642285775485  0.651362391686  0.347852084997
  0.732476710822  0.212932322617  0.347130223804
