NHC4 adsorbed Pd/Cu(111), published SI coordinates
1.0
  7.749290000000  0.000000000000  0.000000000000
  0.000000000000  8.948110000000  0.000000000000
  0.000000000000  0.000000000000  20.000000000000
  Cu  Pd  N  C  H
  35  1  2  7  6
Direct
  0.166670000000  0.750000000000  0.000000000000
  0.500000000000  0.750000000000  0.000000000000
  0.333330000000  0.500000000000  0.000000000000
  0.166670000000  0.250000000000  0.000000000000
  0.000000000000  0.000000000000  0.000000000000
  0.000000000000  0.500000000000  0.000000000000
  0.833330000000  0.750000000000  0.000000000000
  0.500000000000  0.250000000000  0.000000000000
  0.833330000000  0.250000000000  0.000000000000
  0.666670000000  0.000000000000  0.000000000000
  0.666670000000  0.500000000000  0.000000000000
  0.333330000000  0.000000000000  0.000000000000
  0.333330000000  0.833330000000  0.105460000000
  0.166670000000  0.583330000000  0.105460000000
  0.000000000000  0.333330000000  0.105460000000
  0.000000000000  0.833330000000  0.105460000000
  0.500000000000  0.583330000000  0.105460000000
  0.833330000000  0.583330000000  0.105460000000
  0.666670000000  0.333330000000  0.105460000000
  0.666670000000  0.833330000000  0.105460000000
  0.166670000000  0.083330000000  0.105460000000
  0.500000000000  0.083330000000  0.105460000000
  0.333330000000  0.333330000000  0.105460000000
  0.833330000000  0.083330000000  0.105460000000
  0.168342399520  0.916919337737  0.210113468982
  0.002364107822  0.667705775360  0.210584716672
  0.499448703217  0.913125809620  0.209971773014
  0.837386835040  0.912003786558  0.209481530629
  0.667755579769  0.667428518674  0.210691318399
  0.168424503000  0.418183824945  0.210085432332
  0.497904842738  0.422521464333  0.208991010701
  0.331592751484  0.167563453281  0.210270577762
  0.333809390515  0.667725323960  0.210550948961
  0.007546257294  0.167498085952  0.210313046393
  0.838609434782  0.423184121987  0.209311237910
  0.671168883435  0.168699871128  0.220166301526
  0.660830811832  0.308546129139  0.360516112570
  0.700438607686  0.069875468468  0.367116158964
  0.657333631325  0.275183347938  0.428578406633
  0.683416883838  0.119450203282  0.432991787871
  0.683464672182  0.183827419000  0.321981796434
  0.629023038728  0.362603755724  0.485346540991
  0.682306427760  0.045676546141  0.494514832229
  0.651974430392  0.132984797996  0.551350121608
  0.625914469304  0.288508489241  0.546854067941
  0.644795738417  0.411314052820  0.339614884308
  0.718556687247  0.962606478334  0.352035929169
  0.608290052372  0.482748227753  0.481651213852
  0.602193105316  0.352164778261  0.592344014722
  0.648005455531  0.079544945071  0.600238115017
  0.702076312430  0.925395689873  0.498086017104
