48
seed_id=P0_SEED_03 system=P0 geometry_status=unoptimized charge_and_multiplicity_in_molecular_systems_json
C  -2.3025849381 -1.5464747884  0.4029591551
O  -1.8926846038 -0.2672785502  0.1972483308
P  -0.3275621416 -0.1531079206  0.0504671475
C   1.3220316421  0.3839474307 -0.0713552071
C   1.8638997212  0.5585454286 -1.3114723173
C   3.1207499697  1.0242340016 -1.4501440368
C   3.8906753081  1.3353392367 -0.3507951730
C   3.3444687342  1.1587413054  0.8934845516
C   2.0707399160  0.6864443568  1.0157433943
C  -0.9971534622  1.4136836847 -0.2292172787
C  -0.9716939937  2.3850168642  0.7374533588
C  -1.3806255303  3.6919974808  0.5153973704
C  -1.8349979285  4.0479007423 -0.7234647774
C  -1.8768253520  3.1109102338 -1.7132661751
C  -1.4589672125  1.8125694852 -1.4510366011
C  -0.2325212771 -0.7460577642  1.6742654732
C   0.7172122796 -1.7349706752  1.9334397808
C   0.8660441372 -2.2170194832  3.2193858586
N   0.1468333314 -1.7955585376  4.2695879678
C  -0.7645136001 -0.8479726613  4.0215782205
C  -0.9544687057 -0.3294813448  2.7447087579
C  -0.3248133419 -1.2715154038 -1.2699905067
C   0.8302583789 -2.0033832161 -1.5516972011
C   0.8537403943 -2.8904928370 -2.6028843112
N  -0.1648338116 -3.1252552172 -3.4112118320
C  -1.2960938493 -2.4548780883 -3.1927927137
C  -1.3612357521 -1.5596393054 -2.1523236697
H  -3.2702431885 -1.8383478162 -0.0583282980
H  -1.5521738993 -2.3246679763  0.1631929084
H  -2.4911630098 -1.6837447287  1.5120877574
H   1.2794094779  0.3233093016 -2.1826718807
H   3.5794828088  1.1741417896 -2.4208343614
H   4.9186814782  1.7151949119 -0.4783174309
H   3.9240842498  1.3942868572  1.7727319819
H   1.6347588395  0.5484270585  2.0032965285
H  -0.6081820190  2.2127806723  1.7523577888
H  -1.3464913232  4.4256036311  1.2962756040
H  -2.1662880759  5.0949241805 -0.9154589066
H  -2.2332420009  3.3921664025 -2.6824372616
H  -1.5282565866  1.1509925839 -2.3129125089
H   1.3584669028 -2.1663852979  1.2063641251
H   1.6102928100 -2.9924403248  3.4244596002
H  -1.3703423602 -0.4669424876  4.8066584512
H  -1.7205654561  0.4203509994  2.5870784935
H   1.7551189149 -1.9172052066 -1.0044848277
H   1.7730119002 -3.4622702639 -2.8126283704
H  -2.1390967447 -2.6338196129 -3.8441684648
H  -2.2923410296 -1.0325991311 -2.0063284944
