48
seed_id=P0_SEED_02 system=P0 geometry_status=unoptimized charge_and_multiplicity_in_molecular_systems_json
C  -2.2680820065 -1.3761426137  0.8681568173
O  -1.5403693603 -1.1664663033 -0.2494631866
P  -0.2569314317 -0.3188446901  0.0152200808
C   1.2108526439  0.6261416101 -0.1979258869
C   1.1012955938  1.9684386257 -0.3590985431
C   2.2261743134  2.7362794460 -0.6171644845
C   3.4400606450  2.1260589513 -0.7055719797
C   3.5300616419  0.7659908992 -0.5379036395
C   2.4035638955  0.0041593251 -0.2802824913
C  -1.4924080342  0.6751973881 -0.6983738159
C  -1.4489426459  1.0306395440 -2.0222002573
C  -2.3414314858  1.9422580474 -2.6070207754
C  -3.3266967363  2.5335835120 -1.8537961487
C  -3.3989716713  2.1982735309 -0.5264427977
C  -2.4843652104  1.2771455462  0.0273781354
C   0.2087488933  0.0019233012  1.6936205093
C  -0.1923717207  1.1229995136  2.3026751973
C   0.1339652945  1.2945654558  3.6639832805
N   0.8322945211  0.3536459185  4.3273571060
C   1.2254307132 -0.7624233225  3.6892512965
C   0.9127312406 -0.9516051687  2.3432984981
C   0.1843639659 -1.8222484469 -0.7020824994
C   0.1799148292 -3.0643532552 -0.1315833880
C   0.6750857088 -4.2202772641 -0.7369128178
N   1.1992137575 -4.1606447706 -1.9613785259
C   1.2394917565 -2.9955408901 -2.5835395412
C   0.7450265192 -1.8246890640 -1.9843183600
H  -3.3326859347 -1.0593174611  0.6259513077
H  -1.9000711214 -1.0371448941  1.8220071053
H  -2.4244677028 -2.4983592364  0.9979033296
H   0.1734824633  2.5142479716 -0.3031350673
H   2.1594487381  3.8014790799 -0.7485953173
H   4.3148180742  2.7247635220 -0.9066037464
H   4.4964276487  0.3041427147 -0.6111362226
H   2.5667611371 -1.0610321823 -0.1609190465
H  -0.7174563374  0.6202482249 -2.6689072303
H  -2.2705371902  2.1928586643 -3.6492004389
H  -4.0330668490  3.2529761560 -2.3062391587
H  -4.1666164978  2.6523386223  0.0806692159
H  -2.6357048383  1.0801109136  1.0635077513
H  -0.7211698851  1.9109273084  1.8271618878
H  -0.1611414998  2.1725814798  4.2104881643
H   1.7808842889 -1.4956809028  4.2396670051
H   1.2535422872 -1.8326835632  1.8589100035
H  -0.2370875072 -3.1896091242  0.8486919903
H   0.6317407438 -5.1477228326 -0.2159680462
H   1.6619044779 -2.9419792185 -3.5749945129
H   0.8632898741 -0.9572100687 -2.6051407563
