17
805-1
 C          1.0736318339        0.0000600203       -0.0981861370
 O          2.1915242144        0.0000568714        0.3505854959
 C          0.3048190342       -1.2643604978       -0.4040512810
 C         -1.0539885030       -1.2499091938        0.3009560428
 C         -1.8417518021       -0.0001011778       -0.0747835400
 C         -1.0542148437        1.2498499710        0.3008958828
 C          0.3047092316        1.2643977676       -0.4039852283
 H          0.8932167910       -2.1296819928       -0.0952448503
 H          0.1515684706       -1.3161208259       -1.4849346395
 H         -0.8968102783       -1.2696126530        1.3816917153
 H         -1.6136781820       -2.1468239445        0.0282889463
 H         -2.8029556756       -0.0001282848        0.4428458468
 H         -2.0398134127       -0.0001477805       -1.1493245201
 H         -0.8971793310        1.2697095488        1.3816339960
 H         -1.6140681526        2.1465958265        0.0280327419
 H          0.8929476432        2.1297322121       -0.0949709938
 H          0.1515988152        1.3163271962       -1.4848837612
