17
805-2
 C          1.0998312860        0.0000665233       -0.0012244163
 O          2.3050838750        0.0001205415       -0.0025428118
 C          0.2730356692       -1.2083082789        0.3710307499
 C         -1.0576816216       -1.2133463619       -0.3743856108
 C         -1.9174006574       -0.0000341246        0.0019833877
 C         -1.0569175321        1.2131642470        0.3768618051
 C          0.2720680366        1.2083480959       -0.3716215301
 H          0.0975763178       -1.1670160798        1.4497645226
 H          0.8488780293       -2.1128454753        0.1683309499
 H         -1.6002610888       -2.1341209392       -0.1547887815
 H         -0.8533738236       -1.2060258423       -1.4470087447
 H         -2.5642013299       -0.2495496559        0.8447480559
 H         -2.5653644848        0.2496466065       -0.8398195497
 H         -0.8501067212        1.2053630674        1.4490009743
 H         -1.6000262455        2.1340482902        0.1589217128
 H          0.8482881100        2.1129686142       -0.1703824862
 H          0.0940100230        1.1669275947       -1.4499148352
