17
805-3
 C          1.0616734231        0.0149289070        0.0124703406
 O          2.1690867957       -0.0983023644       -0.4497149103
 C          0.2886522568       -1.1347998845        0.6083662756
 C         -1.0839997499       -1.3114188256       -0.0608469937
 C         -1.6910778466        0.0255236773       -0.5036506963
 C         -1.1577195836        1.1707536194        0.3514553729
 C          0.3324963877        1.3389688865        0.0721472120
 H          0.1516589091       -0.9051592594        1.6679145493
 H          0.8747949335       -2.0509721271        0.5308587846
 H         -1.7505678719       -1.8095232605        0.6455886902
 H         -0.9794457333       -1.9656646769       -0.9271327972
 H         -2.7790213465       -0.0228177785       -0.4416177608
 H         -1.4277371935        0.2240475626       -1.5448801539
 H         -1.3310616395        0.9535942373        1.4071231310
 H         -1.6830836624        2.0976007642        0.1149490314
 H          0.8123060199        1.9462475059        0.8444293668
 H          0.4927149790        1.8542650170       -0.8778546817
