18
1475-23
 C         -3.0067265058       -0.3218018810        0.4611904584
 C         -1.5208069292       -0.3727034712        0.1287741856
 C         -1.1093521758        0.7926802095       -0.7675731395
 C          0.3356747313        0.7168181366       -1.2608601387
 C          1.3818549141        0.8629638359       -0.1631475232
 S          1.7285715996       -0.7453436314        0.6601092410
 H         -3.2816922999       -1.1532781237        1.1055035311
 H         -3.6049109155       -0.3779254783       -0.4460321875
 H         -3.2519026722        0.6057686730        0.9745568581
 H         -1.2918599955       -1.3135635675       -0.3764350955
 H         -0.9471611620       -0.3491043702        1.0557667526
 H         -1.2560348189        1.7332252818       -0.2297740191
 H         -1.7643201457        0.8100106704       -1.6425109783
 H          0.4952207766        1.5230657259       -1.9821933809
 H          0.4961839554       -0.2296687416       -1.7823438913
 H          1.0538019828        1.5671057250        0.6018597819
 H          2.3294627296        1.1973523375       -0.5851530007
 H          2.7459817058       -0.3005391389        1.3957618792
