18
1475-3
 C         -3.4054989088       -0.0040534542       -0.4956227349
 C         -2.2994799020       -0.4052186259        0.4725024301
 C         -0.9589965813        0.2168925868        0.0889704959
 C          0.1534709602       -0.1953900432        1.0498378382
 C          1.4810204034        0.4909320171        0.7629957149
 S          2.2754953696       -0.0705115101       -0.7859794348
 H         -4.3509566414       -0.4550412692       -0.2041490497
 H         -3.1665868037       -0.3311999824       -1.5053170066
 H         -3.5301301545        1.0767513047       -0.5068300213
 H         -2.2013667283       -1.4930031783        0.4813943925
 H         -2.5686216606       -0.0887358048        1.4829668246
 H         -1.0539113465        1.3062968410        0.0896422719
 H         -0.7027089911       -0.0977611042       -0.9254961471
 H          0.2931445789       -1.2775679777        1.0045696480
 H         -0.1418374452        0.0612901480        2.0711030936
 H          2.2101041648        0.2510797654        1.5367552619
 H          1.3687380220        1.5735329020        0.7051661625
 H          1.3991991004        0.4878661034       -1.6168178048
