18
1475-10
 C         -3.8096735954        0.1191278038       -0.0150308954
 C         -2.4594429102       -0.5856401420        0.0238463250
 C         -1.3007481537        0.4074455263       -0.0245187415
 C          0.0535969141       -0.2964795868        0.0182830584
 C          1.1985620481        0.7003970540       -0.0336197909
 S          2.8000589007       -0.1984893324        0.0164066893
 H         -3.9101768332        0.7017762249       -0.9282016992
 H         -3.9131165352        0.7925939586        0.8330401555
 H         -4.6201648852       -0.6048065669        0.0209387053
 H         -2.3822245426       -1.2702323634       -0.8236240476
 H         -2.3858282973       -1.1802974547        0.9369853939
 H         -1.3784950515        1.0945063281        0.8217757683
 H         -1.3716279984        1.0005181019       -0.9396946891
 H          0.1386634385       -0.9837296317       -0.8266429922
 H          0.1336020695       -0.8864216741        0.9342467826
 H          1.1699587902        1.3743587131        0.8230049230
 H          1.1720587123        1.2788793640       -0.9574444992
 H          3.5682805607        0.8870089594       -0.0463596790
