18
1475-1
 C         -3.8094267809        0.1479049755        0.0101754899
 C         -2.4669985009       -0.5725900334        0.0173244315
 C         -1.2980974860        0.4093934070       -0.0140563871
 C          0.0494912475       -0.3096738956       -0.0061790787
 C          1.2030608721        0.6782884040       -0.0472981738
 S          2.8297136197       -0.1483179467        0.0508534698
 H         -3.8977879822        0.7986452166        0.8774069482
 H         -4.6275536194       -0.5679278028        0.0335002859
 H         -3.9113720292        0.7568075149       -0.8856083986
 H         -2.4056552534       -1.2346272459       -0.8494702495
 H         -2.3921347235       -1.1928021669        0.9132634808
 H         -1.3594012739        1.0714637817        0.8527584962
 H         -1.3715770954        1.0303757365       -0.9103518711
 H          0.1105778247       -0.9770491973       -0.8703086667
 H          0.1338906049       -0.9226498821        0.8938806995
 H          1.1792972596        1.3434841457        0.8156569699
 H          1.1853827374        1.2788321906       -0.9573365075
 H          2.6848093968       -0.8772474689       -1.0538984312
