18
1475-5
 C         -3.0948425692       -0.4481198084       -0.7542223281
 C         -2.6066234857       -0.0449648966        0.6321774313
 C         -1.2875135537        0.7279628216        0.6051854246
 C         -0.1050253554       -0.1229988911        0.1441432480
 C          1.1976639534        0.6521839856        0.2478389315
 S          2.6234373737       -0.2992577997       -0.3862760537
 H         -3.1765555172        0.4253629658       -1.3975437642
 H         -4.0743792239       -0.9157588990       -0.6862862260
 H         -2.4147924877       -1.1568509792       -1.2192415981
 H         -2.4889455235       -0.9380276435        1.2502495990
 H         -3.3648354140        0.5845105675        1.1037715065
 H         -1.0790154735        1.1024799839        1.6109164673
 H         -1.3892543320        1.5926253464       -0.0545872075
 H         -0.2473931448       -0.4348311187       -0.8914502586
 H         -0.0429422812       -1.0231259237        0.7621142179
 H          1.4158437802        0.9383538344        1.2772951784
 H          1.1686127600        1.5496914690       -0.3697565170
 H          2.5113467839       -1.3106565809        0.4727500187
