18
1475-13
 C         -2.4570881833        0.8150784104       -0.4018383625
 C         -2.2935676744       -0.5955040143        0.1511294998
 C         -0.8431337310       -1.0768176513        0.2080255925
 C          0.0464991769       -0.2819542694        1.1717343725
 C          0.8665101153        0.8033246606        0.4883038822
 S          2.0612587033        0.1298064362       -0.7208401433
 H         -1.9748169107        0.9018814425       -1.3732181927
 H         -2.0262606684        1.5528040145        0.2708878803
 H         -3.5125105571        1.0495782235       -0.5235689343
 H         -2.8545440171       -1.2874032673       -0.4816758521
 H         -2.7274823873       -0.6431833480        1.1532008914
 H         -0.4082864080       -1.0371501863       -0.7930589180
 H         -0.8515587445       -2.1245437210        0.5159477604
 H          0.7362663798       -0.9622268804        1.6786498721
 H         -0.5694944267        0.1885595091        1.9421019376
 H          1.4305312364        1.3877507622        1.2163545837
 H          0.2408253863        1.4734970937       -0.0970923346
 H          2.7315370043       -0.6259902460        0.1466794367
