18
1475-16
 C         -2.9495012584       -0.2182915295        0.6250047097
 C         -1.6891376259       -0.5290586021       -0.1725742508
 C         -0.9976346184        0.7471383799       -0.6533239745
 C          0.3268435131        0.4762011220       -1.3798379737
 C          1.5629485672        0.6683918575       -0.5117803408
 S          1.7089138305       -0.5167641196        0.8729805045
 H         -3.4359931704       -1.1370570772        0.9432956799
 H         -3.6531132310        0.3516942344        0.0216347515
 H         -2.7094295820        0.3661181438        1.5112621444
 H         -1.9524386663       -1.1371475160       -1.0410975100
 H         -1.0059665297       -1.1160781626        0.4430639139
 H         -0.8193847556        1.4091663489        0.1985630622
 H         -1.6782928724        1.2718858684       -1.3272291737
 H          0.4288737798        1.1612314917       -2.2255697071
 H          0.3236692713       -0.5403175764       -1.7777022603
 H          1.5980151253        1.6720792428       -0.0878524000
 H          2.4657465083        0.5030793699       -1.1001625276
 H          0.7262503854       -0.0044809899        1.6095731870
