18
1475-21
 C         -2.9181509888        0.3752108570       -0.4209561471
 C         -1.8445848244       -0.6845874246       -0.2017293216
 C         -0.8836190516       -0.3473303716        0.9390383595
 C         -0.0524911825        0.9197875097        0.7322410562
 C          0.9018839441        0.8435453925       -0.4483503261
 S          2.1222945236       -0.5121787793       -0.2073219165
 H         -3.4532061079        0.5714708679        0.5058826938
 H         -3.6355691359        0.0355884802       -1.1646861774
 H         -2.4860673231        1.3087662010       -0.7733149731
 H         -1.2867423136       -0.8372786971       -1.1271406404
 H         -2.3301293346       -1.6330061143        0.0396147578
 H         -0.2008987355       -1.1882872774        1.0815702485
 H         -1.4595026223       -0.2300493311        1.8600914821
 H          0.5309887513        1.1005557781        1.6383751635
 H         -0.7096356188        1.7795380605        0.5848789341
 H          1.4674138194        1.7711166230       -0.5390317492
 H          0.3722566736        0.6480105703       -1.3798544626
 H          2.8483490132       -0.2221814618       -1.2847596051
